     Program PWSCF-PY v.0.6.11 starts on 31Jul2026 at 19:36:06

     Python reference port of the scalar SCF path in Quantum ESPRESSO pw.x
     Reading input from benchmarks/Si.derivatives.scf.in

     bravais-lattice index     =            2
     lattice parameter (alat)  =      10.1800  a.u.
     unit-cell volume          =     263.7445 (a.u.)^3
     number of atoms/cell      =            2
     number of atomic types    =            1
     number of electrons       =         8.00
     number of Kohn-Sham states=            4
     kinetic-energy cutoff     =      40.0000 Ry
     charge-density cutoff     =     160.0000 Ry
     scf convergence threshold =      1.0E-10
     Exchange-correlation      =  SLA  PW   PBX  PBC

     celldm(1)=  10.180000  celldm(2)=   0.000000  celldm(3)=   0.000000  celldm(4)=   0.000000  celldm(5)=   0.000000  celldm(6)=   0.000000

     crystal axes: (cart. coord. in units of alat)
               a(1) = (  -0.500000   0.000000   0.500000 )
               a(2) = (   0.000000   0.500000   0.500000 )
               a(3) = (  -0.500000   0.500000   0.000000 )

     reciprocal axes: (cart. coord. in units 2 pi/alat)
               b(1) = (  -1.000000  -1.000000   1.000000 )
               b(2) = (   1.000000   1.000000   1.000000 )
               b(3) = (  -1.000000   1.000000  -1.000000 )

     PseudoPot. # 1 for Si read from file:
     /home/sjhong6230/qe-7.5/QEHeat/examples/pseudo/Si_ONCV_PBE-1.1.upf
     MD5 check sum: 8e512d7f7d6072c32a95e3e61f844fc4
     Pseudo is Norm-conserving, Zval =   4.0
     Using 4 radial beta functions, 8 (l,m) channels
     Angular momenta: l(1)=0 l(2)=0 l(3)=1 l(4)=1
     Nonlinear core correction = absent
     Atomic starting density   = present
     Atomic starting orbitals  = 0

     atomic species   valence       mass     pseudopotential
     Si              4.00    28.08500     Si_ONCV_PBE-1.1.upf

   Cartesian axes

     site n.     atom                  positions (alat units)
         1        Si     tau(   1) = (   0.0000000   0.0000000   0.0000000 )
         2        Si     tau(   2) = (  -0.2550000   0.2500000   0.2550000 )

   Crystallographic axes

     site n.     atom                  positions (cryst. coord.)
         1        Si     tau(   1) = (   0.0000000   0.0000000   0.0000000 )
         2        Si     tau(   2) = (   0.2600000   0.2500000   0.2500000 )

     diagonalization           = david
     charge mixing mode        = plain
     mixing beta               =       0.2000
     Broyden history dimension =            8

     number of symmetry operations =     2
     number of k points=     6 (reduced from 8)

                       cart. coord. in units 2pi/alat
        k(    1) = (   0.0000000   0.0000000   0.0000000), wk =   0.2500000
        k(    2) = (   0.5000000  -0.5000000   0.5000000), wk =   0.5000000
        k(    3) = (   0.0000000  -1.0000000   0.0000000), wk =   0.2500000
        k(    4) = (   0.5000000   0.5000000  -0.5000000), wk =   0.2500000
        k(    5) = (   1.0000000   0.0000000   0.0000000), wk =   0.5000000
        k(    6) = (   0.5000000  -0.5000000  -0.5000000), wk =   0.2500000

                       cryst. coord.
        k(    1) = (   0.0000000   0.0000000   0.0000000), wk =   0.2500000
        k(    2) = (   0.0000000   0.0000000  -0.5000000), wk =   0.5000000
        k(    3) = (   0.0000000  -0.5000000  -0.5000000), wk =   0.2500000
        k(    4) = (  -0.5000000   0.0000000   0.0000000), wk =   0.2500000
        k(    5) = (  -0.5000000   0.0000000  -0.5000000), wk =   0.5000000
        k(    6) = (  -0.5000000  -0.5000000  -0.5000000), wk =   0.2500000

     Davidson iterative-solver setup
     active k points           =            6
     plane waves per k point   =   1138 to 1158  
     number of Kohn-Sham states=            4
     Dense grid:     9185 G-vectors     FFT dimensions: (  30,   30,   30)

     G-vector sticks info
     --------------------
     sticks:   dense  smooth     PW     G-vecs:    dense   smooth      PW
     Sum         583     583    151                 9185    9185    1158

     Using Slab Decomposition
     FFT backend              = scipy
     MPI FFT processes        =            2
     Numba scalar kernels    = disabled
     Starting wfcs are    0 randomized atomic wfcs

     Initial potential from superposition of free atoms
     starting charge       7.9075, renormalised to       8.0000
     maximum Davidson subspace =           16
     full Hamiltonian matrices =      avoided
     nonlocal projector cache  = disabled

     Estimated static dynamical RAM per process >       4.72 MB

     Estimated max dynamical RAM per process >       7.04 MB

     Estimated total dynamical RAM >      14.08 MB

     iteration #   1     ecut=    40.00 Ry     beta= 0.20
     Davidson diagonalization with overlap

---- Real-time Memory Report at c_bands before calling an iterative solver
           113 MiB given to the printing process from OS
         14872 MiB available memory on the node where the printing process lives
          0.32 MB estimated for rho,v,vnew
          0.15 MB estimated for rho*nmix
          0.04 MB estimated for psi
          0.30 MB estimated for Davidson subspace
          2.02 MB estimated for FFT workspace
------------------
     ethr =  1.00E-02, avg # of iterations =  7.7
     avg # of Hpsi vectors =  33.3, max residual =  7.59E-02 Ha
     total cpu time spent up to now is        0.5 secs
     total energy              =     -15.5754285458 Ry
     estimated scf accuracy    <   1.0853257068e-01 Ry

     iteration #   2     ecut=    40.00 Ry     beta= 0.20
     Davidson diagonalization with overlap

---- Real-time Memory Report at c_bands before calling an iterative solver
           136 MiB given to the printing process from OS
         14839 MiB available memory on the node where the printing process lives
          0.32 MB estimated for rho,v,vnew
          0.15 MB estimated for rho*nmix
          0.26 MB estimated for psi
          0.30 MB estimated for Davidson subspace
          2.02 MB estimated for FFT workspace
------------------
     ethr =  1.36E-03, avg # of iterations =  1.5
     avg # of Hpsi vectors =   8.8, max residual =  2.56E-02 Ha
     total cpu time spent up to now is        0.6 secs
     total energy              =     -15.5660667263 Ry
     estimated scf accuracy    <   6.3700089509e-02 Ry

     iteration #   3     ecut=    40.00 Ry     beta= 0.20
     Davidson diagonalization with overlap

---- Real-time Memory Report at c_bands before calling an iterative solver
           136 MiB given to the printing process from OS
         14839 MiB available memory on the node where the printing process lives
          0.32 MB estimated for rho,v,vnew
          0.29 MB estimated for rho*nmix
          0.26 MB estimated for psi
          0.30 MB estimated for Davidson subspace
          2.02 MB estimated for FFT workspace
------------------
     ethr =  7.96E-04, avg # of iterations =  1.0
     avg # of Hpsi vectors =   8.0, max residual =  1.16E-02 Ha
     total cpu time spent up to now is        0.6 secs
     total energy              =     -15.5705189487 Ry
     estimated scf accuracy    <   6.5134437873e-04 Ry

     iteration #   4     ecut=    40.00 Ry     beta= 0.20
     Davidson diagonalization with overlap

---- Real-time Memory Report at c_bands before calling an iterative solver
           136 MiB given to the printing process from OS
         14839 MiB available memory on the node where the printing process lives
          0.32 MB estimated for rho,v,vnew
          0.44 MB estimated for rho*nmix
          0.26 MB estimated for psi
          0.30 MB estimated for Davidson subspace
          2.02 MB estimated for FFT workspace
------------------
     ethr =  8.14E-06, avg # of iterations =  3.7
     avg # of Hpsi vectors =  18.7, max residual =  1.35E-03 Ha
     total cpu time spent up to now is        0.7 secs
     total energy              =     -15.5713659364 Ry
     estimated scf accuracy    <   2.9035524970e-04 Ry

     iteration #   5     ecut=    40.00 Ry     beta= 0.20
     Davidson diagonalization with overlap

---- Real-time Memory Report at c_bands before calling an iterative solver
           136 MiB given to the printing process from OS
         14839 MiB available memory on the node where the printing process lives
          0.32 MB estimated for rho,v,vnew
          0.59 MB estimated for rho*nmix
          0.26 MB estimated for psi
          0.30 MB estimated for Davidson subspace
          2.02 MB estimated for FFT workspace
------------------
     ethr =  3.63E-06, avg # of iterations =  1.8
     avg # of Hpsi vectors =   8.8, max residual =  9.08E-04 Ha
     total cpu time spent up to now is        0.8 secs
     total energy              =     -15.5714038221 Ry
     estimated scf accuracy    <   3.9632687682e-05 Ry

     iteration #   6     ecut=    40.00 Ry     beta= 0.20
     Davidson diagonalization with overlap

---- Real-time Memory Report at c_bands before calling an iterative solver
           136 MiB given to the printing process from OS
         14839 MiB available memory on the node where the printing process lives
          0.32 MB estimated for rho,v,vnew
          0.73 MB estimated for rho*nmix
          0.26 MB estimated for psi
          0.30 MB estimated for Davidson subspace
          2.02 MB estimated for FFT workspace
------------------
     ethr =  4.95E-07, avg # of iterations =  2.2
     avg # of Hpsi vectors =  10.5, max residual =  4.05E-04 Ha
     total cpu time spent up to now is        0.9 secs
     total energy              =     -15.5714088447 Ry
     estimated scf accuracy    <   1.2983923094e-06 Ry

     iteration #   7     ecut=    40.00 Ry     beta= 0.20
     Davidson diagonalization with overlap

---- Real-time Memory Report at c_bands before calling an iterative solver
           136 MiB given to the printing process from OS
         14839 MiB available memory on the node where the printing process lives
          0.32 MB estimated for rho,v,vnew
          0.88 MB estimated for rho*nmix
          0.26 MB estimated for psi
          0.30 MB estimated for Davidson subspace
          2.02 MB estimated for FFT workspace
------------------
     ethr =  1.62E-08, avg # of iterations =  2.7
     avg # of Hpsi vectors =  12.0, max residual =  7.01E-05 Ha
     total cpu time spent up to now is        0.9 secs
     total energy              =     -15.5714097721 Ry
     estimated scf accuracy    <   6.7827309745e-07 Ry

     iteration #   8     ecut=    40.00 Ry     beta= 0.20
     Davidson diagonalization with overlap

---- Real-time Memory Report at c_bands before calling an iterative solver
           136 MiB given to the printing process from OS
         14839 MiB available memory on the node where the printing process lives
          0.32 MB estimated for rho,v,vnew
          1.03 MB estimated for rho*nmix
          0.26 MB estimated for psi
          0.30 MB estimated for Davidson subspace
          2.02 MB estimated for FFT workspace
------------------
     ethr =  8.48E-09, avg # of iterations =  2.2
     avg # of Hpsi vectors =  12.2, max residual =  4.68E-05 Ha
     total cpu time spent up to now is        1.0 secs
     total energy              =     -15.5714099346 Ry
     estimated scf accuracy    <   2.2221045286e-07 Ry

     iteration #   9     ecut=    40.00 Ry     beta= 0.20
     Davidson diagonalization with overlap

---- Real-time Memory Report at c_bands before calling an iterative solver
           136 MiB given to the printing process from OS
         14839 MiB available memory on the node where the printing process lives
          0.32 MB estimated for rho,v,vnew
          1.18 MB estimated for rho*nmix
          0.26 MB estimated for psi
          0.30 MB estimated for Davidson subspace
          2.02 MB estimated for FFT workspace
------------------
     ethr =  2.78E-09, avg # of iterations =  1.0
     avg # of Hpsi vectors =   8.0, max residual =  2.18E-05 Ha
     total cpu time spent up to now is        1.1 secs
     total energy              =     -15.5714098888 Ry
     estimated scf accuracy    <   1.0282336529e-07 Ry

     iteration #  10     ecut=    40.00 Ry     beta= 0.20
     Davidson diagonalization with overlap

---- Real-time Memory Report at c_bands before calling an iterative solver
           136 MiB given to the printing process from OS
         14839 MiB available memory on the node where the printing process lives
          0.32 MB estimated for rho,v,vnew
          1.32 MB estimated for rho*nmix
          0.26 MB estimated for psi
          0.30 MB estimated for Davidson subspace
          2.02 MB estimated for FFT workspace
------------------
     ethr =  1.29E-09, avg # of iterations =  2.3
     avg # of Hpsi vectors =  12.3, max residual =  1.59E-05 Ha
     total cpu time spent up to now is        1.2 secs
     total energy              =     -15.5714099226 Ry
     estimated scf accuracy    <   2.1100216932e-08 Ry

     iteration #  11     ecut=    40.00 Ry     beta= 0.20
     Davidson diagonalization with overlap

---- Real-time Memory Report at c_bands before calling an iterative solver
           136 MiB given to the printing process from OS
         14839 MiB available memory on the node where the printing process lives
          0.32 MB estimated for rho,v,vnew
          1.32 MB estimated for rho*nmix
          0.26 MB estimated for psi
          0.30 MB estimated for Davidson subspace
          2.02 MB estimated for FFT workspace
------------------
     ethr =  2.64E-10, avg # of iterations =  1.2
     avg # of Hpsi vectors =   8.3, max residual =  9.92E-06 Ha
     total cpu time spent up to now is        1.2 secs
     total energy              =     -15.5714099220 Ry
     estimated scf accuracy    <   1.8680433385e-08 Ry

     iteration #  12     ecut=    40.00 Ry     beta= 0.20
     Davidson diagonalization with overlap

---- Real-time Memory Report at c_bands before calling an iterative solver
           136 MiB given to the printing process from OS
         14839 MiB available memory on the node where the printing process lives
          0.32 MB estimated for rho,v,vnew
          1.32 MB estimated for rho*nmix
          0.26 MB estimated for psi
          0.30 MB estimated for Davidson subspace
          2.02 MB estimated for FFT workspace
------------------
     ethr =  2.34E-10, avg # of iterations =  1.0
     avg # of Hpsi vectors =   8.0, max residual =  5.05E-06 Ha
     total cpu time spent up to now is        1.3 secs
     total energy              =     -15.5714099152 Ry
     estimated scf accuracy    <   1.5451322807e-08 Ry

     iteration #  13     ecut=    40.00 Ry     beta= 0.20
     Davidson diagonalization with overlap

---- Real-time Memory Report at c_bands before calling an iterative solver
           136 MiB given to the printing process from OS
         14839 MiB available memory on the node where the printing process lives
          0.32 MB estimated for rho,v,vnew
          1.32 MB estimated for rho*nmix
          0.26 MB estimated for psi
          0.30 MB estimated for Davidson subspace
          2.02 MB estimated for FFT workspace
------------------
     ethr =  1.93E-10, avg # of iterations =  2.2
     avg # of Hpsi vectors =  11.2, max residual =  7.17E-06 Ha
     total cpu time spent up to now is        1.4 secs
     total energy              =     -15.5714099174 Ry
     estimated scf accuracy    <   2.2371956349e-10 Ry

     iteration #  14     ecut=    40.00 Ry     beta= 0.20
     Davidson diagonalization with overlap

---- Real-time Memory Report at c_bands before calling an iterative solver
           136 MiB given to the printing process from OS
         14839 MiB available memory on the node where the printing process lives
          0.32 MB estimated for rho,v,vnew
          1.32 MB estimated for rho*nmix
          0.26 MB estimated for psi
          0.30 MB estimated for Davidson subspace
          2.02 MB estimated for FFT workspace
------------------
     ethr =  2.80E-12, avg # of iterations =  3.3
     avg # of Hpsi vectors =  14.5, max residual =  9.45E-07 Ha
     total cpu time spent up to now is        1.5 secs
     total energy              =     -15.5714099176 Ry
     estimated scf accuracy    <   3.5221143005e-10 Ry

     iteration #  15     ecut=    40.00 Ry     beta= 0.20
     Davidson diagonalization with overlap

---- Real-time Memory Report at c_bands before calling an iterative solver
           136 MiB given to the printing process from OS
         14842 MiB available memory on the node where the printing process lives
          0.32 MB estimated for rho,v,vnew
          1.32 MB estimated for rho*nmix
          0.26 MB estimated for psi
          0.30 MB estimated for Davidson subspace
          2.02 MB estimated for FFT workspace
------------------
     ethr =  2.80E-12, avg # of iterations =  1.0
     avg # of Hpsi vectors =   8.0, max residual =  1.09E-06 Ha
     total cpu time spent up to now is        1.5 secs
     total energy              =     -15.5714099176 Ry
     estimated scf accuracy    <   3.1393379993e-10 Ry

     iteration #  16     ecut=    40.00 Ry     beta= 0.20
     Davidson diagonalization with overlap

---- Real-time Memory Report at c_bands before calling an iterative solver
           136 MiB given to the printing process from OS
         14842 MiB available memory on the node where the printing process lives
          0.32 MB estimated for rho,v,vnew
          1.32 MB estimated for rho*nmix
          0.26 MB estimated for psi
          0.30 MB estimated for Davidson subspace
          2.02 MB estimated for FFT workspace
------------------
     ethr =  2.80E-12, avg # of iterations =  2.0
     avg # of Hpsi vectors =   9.7, max residual =  8.34E-07 Ha
     total cpu time spent up to now is        1.6 secs
     total energy              =     -15.5714099176 Ry
     estimated scf accuracy    <   2.2071287020e-10 Ry

     iteration #  17     ecut=    40.00 Ry     beta= 0.20
     Davidson diagonalization with overlap

---- Real-time Memory Report at c_bands before calling an iterative solver
           136 MiB given to the printing process from OS
         14842 MiB available memory on the node where the printing process lives
          0.32 MB estimated for rho,v,vnew
          1.32 MB estimated for rho*nmix
          0.26 MB estimated for psi
          0.30 MB estimated for Davidson subspace
          2.02 MB estimated for FFT workspace
------------------
     ethr =  2.76E-12, avg # of iterations =  1.0
     avg # of Hpsi vectors =   8.0, max residual =  5.88E-07 Ha
     total cpu time spent up to now is        1.6 secs
     total energy              =     -15.5714099175 Ry
     estimated scf accuracy    <   1.0805617944e-10 Ry

     iteration #  18     ecut=    40.00 Ry     beta= 0.20
     Davidson diagonalization with overlap

---- Real-time Memory Report at c_bands before calling an iterative solver
           136 MiB given to the printing process from OS
         14842 MiB available memory on the node where the printing process lives
          0.32 MB estimated for rho,v,vnew
          1.32 MB estimated for rho*nmix
          0.26 MB estimated for psi
          0.30 MB estimated for Davidson subspace
          2.02 MB estimated for FFT workspace
------------------
     ethr =  1.35E-12, avg # of iterations =  1.0
     avg # of Hpsi vectors =   8.0, max residual =  7.84E-07 Ha
     total cpu time spent up to now is        1.7 secs
     total energy              =     -15.5714099175 Ry
     estimated scf accuracy    <   3.7895872935e-11 Ry

     End of self-consistent calculation

          k =   0.0000   0.0000   0.0000 (  1139 PWs)   bands (ev):
      -5.4045    6.5941    6.7843    6.9733

     occupation numbers
       1.0000    1.0000    1.0000    1.0000
          k =   0.5000  -0.5000   0.5000 (  1158 PWs)   bands (ev):
      -2.9929   -0.3709    5.4207    5.6660

     occupation numbers
       1.0000    1.0000    1.0000    1.0000
          k =   0.0000  -1.0000   0.0000 (  1138 PWs)   bands (ev):
      -1.1555   -1.1469    3.8106    3.8169

     occupation numbers
       1.0000    1.0000    1.0000    1.0000
          k =   0.5000   0.5000  -0.5000 (  1158 PWs)   bands (ev):
      -2.9248   -0.5074    5.5019    5.6410

     occupation numbers
       1.0000    1.0000    1.0000    1.0000
          k =   1.0000   0.0000   0.0000 (  1138 PWs)   bands (ev):
      -1.2388   -1.0604    3.7651    3.8573

     occupation numbers
       1.0000    1.0000    1.0000    1.0000
          k =   0.5000  -0.5000  -0.5000 (  1158 PWs)   bands (ev):
      -3.0549   -0.2397    5.4387    5.5828

     occupation numbers
       1.0000    1.0000    1.0000    1.0000

     highest occupied level (ev):     6.9733

!    total energy              =     -15.5714099175 Ry
     estimated scf accuracy    <       0.0000000000 Ry

     The total energy is the sum of the following terms:
     one-electron contribution =       5.0273551374 Ry
     hartree contribution      =       1.2517601112 Ry
     xc contribution           =      -4.9188815906 Ry
     ewald contribution        =     -16.9316435755 Ry

     Forces acting on atoms (cartesian axes, Ry/au):

     atom    1 type  1   force =    -0.01932059   -0.00114872    0.01932059
     atom    2 type  1   force =     0.01932059    0.00114872   -0.01932059

     Total force =     0.038675     Total SCF correction =     0.000000

          total   stress  (Ry/bohr**3)                   (kbar)     P=   133.28
     0.00090460   0.00009212  -0.00000430        133.07      13.55      -0.63
     0.00009212   0.00090889  -0.00009212         13.55     133.70     -13.55
    -0.00000430  -0.00009212   0.00090460         -0.63     -13.55     133.07

     convergence has been achieved in  18 iterations

     peak resident memory/rank = 136.49 MiB
     aggregate rank high-water marks = 272.90 MiB

     init_run     :      0.23s CPU      0.24s WALL (       1 calls)
     electrons    :      1.47s CPU      1.50s WALL (       1 calls)
     forces       :      0.08s CPU      0.08s WALL (       1 calls)
     stress       :      1.96s CPU      1.96s WALL (       1 calls)

     Called by init_run:
     wfcinit      :      0.05s CPU      0.06s WALL (       6 calls)
     potinit      :      0.02s CPU      0.02s WALL (       1 calls)
     hinit0       :      0.02s CPU      0.02s WALL (       1 calls)
     sym_rho:init :      0.00s CPU      0.00s WALL (       1 calls)

     Called by electrons:
     c_bands      :      0.98s CPU      1.00s WALL (      18 calls)
     sum_band     :      0.14s CPU      0.14s WALL (      18 calls)
     v_of_rho     :      0.15s CPU      0.16s WALL (      18 calls)
     v_h          :      0.02s CPU      0.02s WALL (      18 calls)
     v_xc         :      0.13s CPU      0.14s WALL (      18 calls)
     mix_rho      :      0.05s CPU      0.05s WALL (      18 calls)

     Called by sum_band:
     sum_band:wfc    :      0.10s CPU      0.10s WALL (     108 calls)
     sum_band:rho    :      0.03s CPU      0.03s WALL (     108 calls)
     sum_band:collect:      0.00s CPU      0.00s WALL (       0 calls)
     sum_band:sym    :      0.01s CPU      0.01s WALL (      18 calls)

     Called by c_bands:
     init_us_2    :      0.18s CPU      0.18s WALL (     108 calls)
     cegterg      :      0.75s CPU      0.75s WALL (     108 calls)
     cdiaghg      :      0.06s CPU      0.06s WALL (     334 calls)
     cegterg:over :      0.02s CPU      0.02s WALL (     102 calls)
     cegterg:upda :      0.01s CPU      0.01s WALL (     334 calls)
     cegterg:last :      0.02s CPU      0.02s WALL (      12 calls)
     g_psi        :      0.01s CPU      0.01s WALL (     232 calls)

     Called by h_psi:
     h_psi        :      0.59s CPU      0.59s WALL (     358 calls)
     h_psi:calbec :      0.04s CPU      0.05s WALL (     358 calls)
     vloc_psi     :      0.51s CPU      0.51s WALL (     358 calls)
     add_vuspsi   :      0.02s CPU      0.02s WALL (     358 calls)
     fftw         :      0.70s CPU      0.71s WALL (    1258 calls)
     calbec       :      0.04s CPU      0.05s WALL (     358 calls)

     PWSCF        :      1.70s CPU      3.78s WALL

   JOB DONE.
