
     Program PWSCF v.7.5 starts on 31Jul2026 at 19:31: 4 

     This program is part of the open-source Quantum ESPRESSO suite
     for quantum simulation of materials; please cite
         "P. Giannozzi et al., J. Phys.:Condens. Matter 21 395502 (2009);
         "P. Giannozzi et al., J. Phys.:Condens. Matter 29 465901 (2017);
         "P. Giannozzi et al., J. Chem. Phys. 152 154105 (2020);
          URL http://www.quantum-espresso.org", 
     in publications or presentations arising from this work. More details at
     http://www.quantum-espresso.org/quote

     Parallel version (MPI), running on     2 processors

     MPI processes distributed on     1 nodes
     14526 MiB available memory on the printing compute node when the environment starts

     Reading input from benchmarks/Si.derivatives.scf.in

     Current dimensions of program PWSCF are:
     Max number of different atomic species (ntypx) = 10
     Max number of k-points (npk) =  40000
     Max angular momentum in pseudopotentials (lmaxx) =  4

     IMPORTANT: XC functional enforced from input :
     Exchange-correlation= PBE
                           (   1   4   3   4   0   0   0)
     Any further DFT definition will be discarded
     Please, verify this is what you really want


     R & G space division:  proc/nbgrp/npool/nimage =       2
     Subspace diagonalization in iterative solution of the eigenvalue problem:
     a serial algorithm will be used


     Parallelization info
     --------------------
     sticks:   dense  smooth     PW     G-vecs:    dense   smooth      PW
     Min         291     291     81                 4592     4592     728
     Max         292     292     82                 4593     4593     731
     Sum         583     583    163                 9185     9185    1459

     Using Slab Decomposition



     bravais-lattice index     =            2
     lattice parameter (alat)  =      10.1800  a.u.
     unit-cell volume          =     263.7445 (a.u.)^3
     number of atoms/cell      =            2
     number of atomic types    =            1
     number of electrons       =         8.00
     number of Kohn-Sham states=            4
     kinetic-energy cutoff     =      40.0000  Ry
     charge density cutoff     =     160.0000  Ry
     scf convergence threshold =      1.0E-10
     mixing beta               =       0.2000
     number of iterations used =            8  plain     mixing
     Exchange-correlation= PBE
                           (   1   4   3   4   0   0   0)

     celldm(1)=  10.180000  celldm(2)=   0.000000  celldm(3)=   0.000000
     celldm(4)=   0.000000  celldm(5)=   0.000000  celldm(6)=   0.000000

     crystal axes: (cart. coord. in units of alat)
               a(1) = (  -0.500000   0.000000   0.500000 )  
               a(2) = (   0.000000   0.500000   0.500000 )  
               a(3) = (  -0.500000   0.500000   0.000000 )  

     reciprocal axes: (cart. coord. in units 2 pi/alat)
               b(1) = ( -1.000000 -1.000000  1.000000 )  
               b(2) = (  1.000000  1.000000  1.000000 )  
               b(3) = ( -1.000000  1.000000 -1.000000 )  


     PseudoPot. # 1 for Si read from file:
     /home/sjhong6230/qe-7.5/QEHeat/examples/pseudo/Si_ONCV_PBE-1.1.upf
     MD5 check sum: 8e512d7f7d6072c32a95e3e61f844fc4
     Pseudo is Norm-conserving, Zval =  4.0
     Generated using ONCVPSP code by D. R. Hamann
     Using radial grid of  602 points,  4 beta functions with: 
                l(1) =   0
                l(2) =   0
                l(3) =   1
                l(4) =   1

     atomic species   valence    mass     pseudopotential
     Si                4.00    28.08500     Si( 1.00)

      2 Sym. Ops. (no inversion) found



   Cartesian axes

     site n.     atom                  positions (alat units)
         1        Si     tau(   1) = (   0.0000000   0.0000000   0.0000000  )
         2        Si     tau(   2) = (  -0.2550000   0.2500000   0.2550000  )

     number of k points=     6
                       cart. coord. in units 2pi/alat
        k(    1) = (   0.0000000   0.0000000   0.0000000), wk =   0.2500000
        k(    2) = (   0.5000000  -0.5000000   0.5000000), wk =   0.5000000
        k(    3) = (   0.0000000  -1.0000000   0.0000000), wk =   0.2500000
        k(    4) = (   0.5000000   0.5000000  -0.5000000), wk =   0.2500000
        k(    5) = (   0.5000000  -0.5000000  -0.5000000), wk =   0.2500000
        k(    6) = (  -1.0000000   0.0000000   0.0000000), wk =   0.5000000

     Dense  grid:     9185 G-vectors     FFT dimensions: (  30,  30,  30)

     Estimated max dynamical RAM per process >       3.65 MB

     Estimated total dynamical RAM >       7.29 MB

     Initial potential from superposition of free atoms

     starting charge       7.9075, renormalised to       8.0000
     Starting wfcs are random

     total cpu time spent up to now is        0.1 secs

     Self-consistent Calculation

     iteration #  1     ecut=    40.00 Ry     beta= 0.20
     Davidson diagonalization with overlap
     ethr =  1.00E-02,  avg # of iterations =  8.3

     total cpu time spent up to now is        0.1 secs

     total energy              =     -15.55962328 Ry
     estimated scf accuracy    <       0.10292168 Ry

     iteration #  2     ecut=    40.00 Ry     beta= 0.20
     Davidson diagonalization with overlap
     ethr =  1.29E-03,  avg # of iterations =  2.5

     total cpu time spent up to now is        0.2 secs

     total energy              =     -15.56426678 Ry
     estimated scf accuracy    <       0.06351890 Ry

     iteration #  3     ecut=    40.00 Ry     beta= 0.20
     Davidson diagonalization with overlap
     ethr =  7.94E-04,  avg # of iterations =  1.5

     total cpu time spent up to now is        0.2 secs

     total energy              =     -15.56957158 Ry
     estimated scf accuracy    <       0.00069429 Ry

     iteration #  4     ecut=    40.00 Ry     beta= 0.20
     Davidson diagonalization with overlap
     ethr =  8.68E-06,  avg # of iterations =  6.2

     total cpu time spent up to now is        0.2 secs

     total energy              =     -15.57130505 Ry
     estimated scf accuracy    <       0.00049488 Ry

     iteration #  5     ecut=    40.00 Ry     beta= 0.20
     Davidson diagonalization with overlap
     ethr =  6.19E-06,  avg # of iterations =  1.0

     total cpu time spent up to now is        0.3 secs

     total energy              =     -15.57138512 Ry
     estimated scf accuracy    <       0.00017380 Ry

     iteration #  6     ecut=    40.00 Ry     beta= 0.20
     Davidson diagonalization with overlap
     ethr =  2.17E-06,  avg # of iterations =  2.0

     total cpu time spent up to now is        0.3 secs

     total energy              =     -15.57140504 Ry
     estimated scf accuracy    <       0.00001815 Ry

     iteration #  7     ecut=    40.00 Ry     beta= 0.20
     Davidson diagonalization with overlap
     ethr =  2.27E-07,  avg # of iterations =  2.5

     total cpu time spent up to now is        0.3 secs

     total energy              =     -15.57140909 Ry
     estimated scf accuracy    <       0.00000234 Ry

     iteration #  8     ecut=    40.00 Ry     beta= 0.20
     Davidson diagonalization with overlap
     ethr =  2.92E-08,  avg # of iterations =  2.3

     total cpu time spent up to now is        0.4 secs

     total energy              =     -15.57140974 Ry
     estimated scf accuracy    <       0.00000027 Ry

     iteration #  9     ecut=    40.00 Ry     beta= 0.20
     Davidson diagonalization with overlap
     ethr =  3.34E-09,  avg # of iterations =  3.7

     total cpu time spent up to now is        0.4 secs

     total energy              =     -15.57140992 Ry
     estimated scf accuracy    <       0.00000006 Ry

     iteration # 10     ecut=    40.00 Ry     beta= 0.20
     Davidson diagonalization with overlap
     ethr =  7.26E-10,  avg # of iterations =  3.3

     total cpu time spent up to now is        0.4 secs

     total energy              =     -15.57140990 Ry
     estimated scf accuracy    <       0.00000011 Ry

     iteration # 11     ecut=    40.00 Ry     beta= 0.20
     Davidson diagonalization with overlap
     ethr =  7.26E-10,  avg # of iterations =  2.2

     total cpu time spent up to now is        0.5 secs

     total energy              =     -15.57140991 Ry
     estimated scf accuracy    <          6.9E-09 Ry

     iteration # 12     ecut=    40.00 Ry     beta= 0.20
     Davidson diagonalization with overlap
     ethr =  8.57E-11,  avg # of iterations =  3.7

     total cpu time spent up to now is        0.5 secs

     total energy              =     -15.57140992 Ry
     estimated scf accuracy    <          5.5E-10 Ry

     iteration # 13     ecut=    40.00 Ry     beta= 0.20
     Davidson diagonalization with overlap
     ethr =  6.93E-12,  avg # of iterations =  3.7

     total cpu time spent up to now is        0.5 secs

     total energy              =     -15.57140992 Ry
     estimated scf accuracy    <          3.3E-10 Ry

     iteration # 14     ecut=    40.00 Ry     beta= 0.20
     Davidson diagonalization with overlap
     ethr =  4.13E-12,  avg # of iterations =  4.7

     total cpu time spent up to now is        0.6 secs

     total energy              =     -15.57140992 Ry
     estimated scf accuracy    <          1.9E-09 Ry

     iteration # 15     ecut=    40.00 Ry     beta= 0.20
     Davidson diagonalization with overlap
     ethr =  4.13E-12,  avg # of iterations =  3.5

     total cpu time spent up to now is        0.6 secs

     End of self-consistent calculation

          k = 0.0000 0.0000 0.0000 (  1139 PWs)   bands (ev):

    -5.4045   6.5941   6.7843   6.9733

          k = 0.5000-0.5000 0.5000 (  1158 PWs)   bands (ev):

    -2.9929  -0.3709   5.4207   5.6660

          k = 0.0000-1.0000 0.0000 (  1138 PWs)   bands (ev):

    -1.1555  -1.1469   3.8106   3.8169

          k = 0.5000 0.5000-0.5000 (  1158 PWs)   bands (ev):

    -2.9248  -0.5074   5.5019   5.6410

          k = 0.5000-0.5000-0.5000 (  1158 PWs)   bands (ev):

    -3.0549  -0.2397   5.4387   5.5828

          k =-1.0000 0.0000 0.0000 (  1138 PWs)   bands (ev):

    -1.2388  -1.0604   3.7651   3.8573

     highest occupied level (ev):     6.9733

!    total energy              =     -15.57140992 Ry
     estimated scf accuracy    <          1.5E-11 Ry

     The total energy is the sum of the following terms:
     one-electron contribution =       5.02735531 Ry
     hartree contribution      =       1.25175979 Ry
     xc contribution           =      -4.91888145 Ry
     ewald contribution        =     -16.93164358 Ry

     convergence has been achieved in  15 iterations

     Forces acting on atoms (cartesian axes, Ry/au):

     atom    1 type  1   force =    -0.01932071   -0.00114878    0.01932071
     atom    2 type  1   force =     0.01932071    0.00114878   -0.01932071

     Total force =     0.038676     Total SCF correction =     0.000002


     Computing stress (Cartesian axis) and pressure

          total   stress  (Ry/bohr**3)                   (kbar)     P=      133.28
   0.00090460   0.00009212  -0.00000431          133.07       13.55       -0.63
   0.00009212   0.00090889  -0.00009212           13.55      133.70      -13.55
  -0.00000431  -0.00009212   0.00090460           -0.63      -13.55      133.07


     Writing all to output data dir /tmp/qe_porting_si_derivatives/Si_derivatives.save/ :
     XML data file, charge density, pseudopotentials, collected wavefunctions

     init_run     :      0.03s CPU      0.04s WALL (       1 calls)
     electrons    :      0.49s CPU      0.55s WALL (       1 calls)
     forces       :      0.00s CPU      0.00s WALL (       1 calls)
     stress       :      0.02s CPU      0.02s WALL (       1 calls)

     Called by init_run:
     wfcinit      :      0.01s CPU      0.01s WALL (       1 calls)
     potinit      :      0.00s CPU      0.01s WALL (       1 calls)
     hinit0       :      0.01s CPU      0.01s WALL (       1 calls)

     Called by electrons:
     c_bands      :      0.36s CPU      0.42s WALL (      15 calls)
     sum_band     :      0.05s CPU      0.05s WALL (      15 calls)
     v_of_rho     :      0.06s CPU      0.07s WALL (      16 calls)
     mix_rho      :      0.01s CPU      0.01s WALL (      15 calls)

     Called by c_bands:
     init_us_2    :      0.01s CPU      0.01s WALL (     198 calls)
     cegterg      :      0.34s CPU      0.36s WALL (      90 calls)

     Called by *egterg:
     cdiaghg      :      0.01s CPU      0.01s WALL (     396 calls)
     h_psi        :      0.30s CPU      0.32s WALL (     402 calls)
     g_psi        :      0.00s CPU      0.00s WALL (     306 calls)

     Called by h_psi:
     h_psi:calbec :      0.02s CPU      0.02s WALL (     402 calls)
     vloc_psi     :      0.27s CPU      0.29s WALL (     402 calls)
                                        0.00s GPU  (     402 calls)
     add_vuspsi   :      0.02s CPU      0.02s WALL (     402 calls)

     General routines
     calbec       :      0.02s CPU      0.02s WALL (     504 calls)
     fft          :      0.03s CPU      0.03s WALL (     167 calls)
     ffts         :      0.00s CPU      0.00s WALL (      15 calls)
     fftw         :      0.28s CPU      0.29s WALL (    2904 calls)

     Parallel routines

     PWSCF        :      0.55s CPU      0.63s WALL


   This run was terminated on:  19:31: 5  31Jul2026            

=------------------------------------------------------------------------------=
   JOB DONE.
=------------------------------------------------------------------------------=
