     Program PWSCF-PY v.0.6.9 starts on 31Jul2026 at 18:51:27

     Python reference port of the scalar SCF path in Quantum ESPRESSO pw.x
     Reading input from benchmarks/Si.pbe.scf.in

     bravais-lattice index     =            2
     lattice parameter (alat)  =      10.1800  a.u.
     unit-cell volume          =     263.7445 (a.u.)^3
     number of atoms/cell      =            2
     number of atomic types    =            1
     number of electrons       =         8.00
     number of Kohn-Sham states=            4
     kinetic-energy cutoff     =      40.0000 Ry
     charge-density cutoff     =     160.0000 Ry
     scf convergence threshold =      1.0E-06
     Exchange-correlation      =  SLA  PW   PBX  PBC

     celldm(1)=  10.180000  celldm(2)=   0.000000  celldm(3)=   0.000000  celldm(4)=   0.000000  celldm(5)=   0.000000  celldm(6)=   0.000000

     crystal axes: (cart. coord. in units of alat)
               a(1) = (  -0.500000   0.000000   0.500000 )
               a(2) = (   0.000000   0.500000   0.500000 )
               a(3) = (  -0.500000   0.500000   0.000000 )

     reciprocal axes: (cart. coord. in units 2 pi/alat)
               b(1) = (  -1.000000  -1.000000   1.000000 )
               b(2) = (   1.000000   1.000000   1.000000 )
               b(3) = (  -1.000000   1.000000  -1.000000 )

     PseudoPot. # 1 for Si read from file:
     /home/sjhong6230/qe-7.5/QEHeat/examples/pseudo/Si_ONCV_PBE-1.1.upf
     MD5 check sum: 8e512d7f7d6072c32a95e3e61f844fc4
     Pseudo is Norm-conserving, Zval =   4.0
     Using 4 radial beta functions, 8 (l,m) channels
     Angular momenta: l(1)=0 l(2)=0 l(3)=1 l(4)=1
     Nonlinear core correction = absent
     Atomic starting density   = present
     Atomic starting orbitals  = 0

     atomic species   valence       mass     pseudopotential
     Si              4.00    28.08500     Si_ONCV_PBE-1.1.upf

   Cartesian axes

     site n.     atom                  positions (alat units)
         1        Si     tau(   1) = (   0.0000000   0.0000000   0.0000000 )
         2        Si     tau(   2) = (  -0.2500000   0.2500000   0.2500000 )

   Crystallographic axes

     site n.     atom                  positions (cryst. coord.)
         1        Si     tau(   1) = (   0.0000000   0.0000000   0.0000000 )
         2        Si     tau(   2) = (   0.2500000   0.2500000   0.2500000 )

     diagonalization           = david
     charge mixing mode        = plain
     mixing beta               =       0.1000
     Broyden history dimension =            8

     number of symmetry operations =    48

      isym =   1     crystal symmetry, frac. trans. = (  0.000000  0.000000  0.000000 )
 cryst.   s = (   -1    0    0 )
                (   -1    0    1 )
                (   -1    1    0 )

      isym =   2     crystal symmetry, frac. trans. = (  0.000000  0.000000  0.000000 )
 cryst.   s = (   -1    0    0 )
                (   -1    1    0 )
                (   -1    0    1 )

      isym =   3     crystal symmetry, frac. trans. = (  0.250000  0.250000  0.250000 )
 cryst.   s = (   -1    0    0 )
                (    0   -1    0 )
                (    0    0   -1 )

      isym =   4     crystal symmetry, frac. trans. = (  0.250000  0.250000  0.250000 )
 cryst.   s = (   -1    0    0 )
                (    0    0   -1 )
                (    0   -1    0 )

      isym =   5     crystal symmetry, frac. trans. = (  0.000000  0.000000  0.000000 )
 cryst.   s = (   -1    0    1 )
                (   -1    0    0 )
                (   -1    1    0 )

      isym =   6     crystal symmetry, frac. trans. = (  0.000000  0.000000  0.000000 )
 cryst.   s = (   -1    0    1 )
                (   -1    1    0 )
                (   -1    0    0 )

      isym =   7     crystal symmetry, frac. trans. = (  0.250000  0.250000  0.250000 )
 cryst.   s = (   -1    0    1 )
                (    0   -1    1 )
                (    0    0    1 )

      isym =   8     crystal symmetry, frac. trans. = (  0.250000  0.250000  0.250000 )
 cryst.   s = (   -1    0    1 )
                (    0    0    1 )
                (    0   -1    1 )

      isym =   9     crystal symmetry, frac. trans. = (  0.000000  0.000000  0.000000 )
 cryst.   s = (   -1    1    0 )
                (   -1    0    0 )
                (   -1    0    1 )

      isym =  10     crystal symmetry, frac. trans. = (  0.000000  0.000000  0.000000 )
 cryst.   s = (   -1    1    0 )
                (   -1    0    1 )
                (   -1    0    0 )

      isym =  11     crystal symmetry, frac. trans. = (  0.250000  0.250000  0.250000 )
 cryst.   s = (   -1    1    0 )
                (    0    1   -1 )
                (    0    1    0 )

      isym =  12     crystal symmetry, frac. trans. = (  0.250000  0.250000  0.250000 )
 cryst.   s = (   -1    1    0 )
                (    0    1    0 )
                (    0    1   -1 )

      isym =  13     crystal symmetry, frac. trans. = (  0.250000  0.250000  0.250000 )
 cryst.   s = (    0   -1    0 )
                (   -1    0    0 )
                (    0    0   -1 )

      isym =  14     crystal symmetry, frac. trans. = (  0.000000  0.000000  0.000000 )
 cryst.   s = (    0   -1    0 )
                (    0   -1    1 )
                (    1   -1    0 )

      isym =  15     crystal symmetry, frac. trans. = (  0.250000  0.250000  0.250000 )
 cryst.   s = (    0   -1    0 )
                (    0    0   -1 )
                (   -1    0    0 )

      isym =  16     crystal symmetry, frac. trans. = (  0.000000  0.000000  0.000000 )
 cryst.   s = (    0   -1    0 )
                (    1   -1    0 )
                (    0   -1    1 )

      isym =  17     crystal symmetry, frac. trans. = (  0.250000  0.250000  0.250000 )
 cryst.   s = (    0   -1    1 )
                (   -1    0    1 )
                (    0    0    1 )

      isym =  18     crystal symmetry, frac. trans. = (  0.000000  0.000000  0.000000 )
 cryst.   s = (    0   -1    1 )
                (    0   -1    0 )
                (    1   -1    0 )

      isym =  19     crystal symmetry, frac. trans. = (  0.250000  0.250000  0.250000 )
 cryst.   s = (    0   -1    1 )
                (    0    0    1 )
                (   -1    0    1 )

      isym =  20     crystal symmetry, frac. trans. = (  0.000000  0.000000  0.000000 )
 cryst.   s = (    0   -1    1 )
                (    1   -1    0 )
                (    0   -1    0 )

      isym =  21     crystal symmetry, frac. trans. = (  0.250000  0.250000  0.250000 )
 cryst.   s = (    0    0   -1 )
                (   -1    0    0 )
                (    0   -1    0 )

      isym =  22     crystal symmetry, frac. trans. = (  0.250000  0.250000  0.250000 )
 cryst.   s = (    0    0   -1 )
                (    0   -1    0 )
                (   -1    0    0 )

      isym =  23     crystal symmetry, frac. trans. = (  0.000000  0.000000  0.000000 )
 cryst.   s = (    0    0   -1 )
                (    0    1   -1 )
                (    1    0   -1 )

      isym =  24     crystal symmetry, frac. trans. = (  0.000000  0.000000  0.000000 )
 cryst.   s = (    0    0   -1 )
                (    1    0   -1 )
                (    0    1   -1 )

      isym =  25     crystal symmetry, frac. trans. = (  0.250000  0.250000  0.250000 )
 cryst.   s = (    0    0    1 )
                (   -1    0    1 )
                (    0   -1    1 )

      isym =  26     crystal symmetry, frac. trans. = (  0.250000  0.250000  0.250000 )
 cryst.   s = (    0    0    1 )
                (    0   -1    1 )
                (   -1    0    1 )

      isym =  27     crystal symmetry, frac. trans. = (  0.000000  0.000000  0.000000 )
 cryst.   s = (    0    0    1 )
                (    0    1    0 )
                (    1    0    0 )

      isym =  28     crystal symmetry, frac. trans. = (  0.000000  0.000000  0.000000 )
 cryst.   s = (    0    0    1 )
                (    1    0    0 )
                (    0    1    0 )

      isym =  29     crystal symmetry, frac. trans. = (  0.250000  0.250000  0.250000 )
 cryst.   s = (    0    1   -1 )
                (   -1    1    0 )
                (    0    1    0 )

      isym =  30     crystal symmetry, frac. trans. = (  0.000000  0.000000  0.000000 )
 cryst.   s = (    0    1   -1 )
                (    0    0   -1 )
                (    1    0   -1 )

      isym =  31     crystal symmetry, frac. trans. = (  0.250000  0.250000  0.250000 )
 cryst.   s = (    0    1   -1 )
                (    0    1    0 )
                (   -1    1    0 )

      isym =  32     crystal symmetry, frac. trans. = (  0.000000  0.000000  0.000000 )
 cryst.   s = (    0    1   -1 )
                (    1    0   -1 )
                (    0    0   -1 )

      isym =  33     crystal symmetry, frac. trans. = (  0.250000  0.250000  0.250000 )
 cryst.   s = (    0    1    0 )
                (   -1    1    0 )
                (    0    1   -1 )

      isym =  34     crystal symmetry, frac. trans. = (  0.000000  0.000000  0.000000 )
 cryst.   s = (    0    1    0 )
                (    0    0    1 )
                (    1    0    0 )

      isym =  35     crystal symmetry, frac. trans. = (  0.250000  0.250000  0.250000 )
 cryst.   s = (    0    1    0 )
                (    0    1   -1 )
                (   -1    1    0 )

      isym =  36     crystal symmetry, frac. trans. = (  0.000000  0.000000  0.000000 )
 cryst.   s = (    0    1    0 )
                (    1    0    0 )
                (    0    0    1 )

      isym =  37     crystal symmetry, frac. trans. = (  0.000000  0.000000  0.000000 )
 cryst.   s = (    1   -1    0 )
                (    0   -1    0 )
                (    0   -1    1 )

      isym =  38     crystal symmetry, frac. trans. = (  0.000000  0.000000  0.000000 )
 cryst.   s = (    1   -1    0 )
                (    0   -1    1 )
                (    0   -1    0 )

      isym =  39     crystal symmetry, frac. trans. = (  0.250000  0.250000  0.250000 )
 cryst.   s = (    1   -1    0 )
                (    1    0   -1 )
                (    1    0    0 )

      isym =  40     crystal symmetry, frac. trans. = (  0.250000  0.250000  0.250000 )
 cryst.   s = (    1   -1    0 )
                (    1    0    0 )
                (    1    0   -1 )

      isym =  41     crystal symmetry, frac. trans. = (  0.000000  0.000000  0.000000 )
 cryst.   s = (    1    0   -1 )
                (    0    0   -1 )
                (    0    1   -1 )

      isym =  42     crystal symmetry, frac. trans. = (  0.000000  0.000000  0.000000 )
 cryst.   s = (    1    0   -1 )
                (    0    1   -1 )
                (    0    0   -1 )

      isym =  43     crystal symmetry, frac. trans. = (  0.250000  0.250000  0.250000 )
 cryst.   s = (    1    0   -1 )
                (    1   -1    0 )
                (    1    0    0 )

      isym =  44     crystal symmetry, frac. trans. = (  0.250000  0.250000  0.250000 )
 cryst.   s = (    1    0   -1 )
                (    1    0    0 )
                (    1   -1    0 )

      isym =  45     crystal symmetry, frac. trans. = (  0.000000  0.000000  0.000000 )
 cryst.   s = (    1    0    0 )
                (    0    0    1 )
                (    0    1    0 )

      isym =  46     crystal symmetry, frac. trans. = (  0.000000  0.000000  0.000000 )
 cryst.   s = (    1    0    0 )
                (    0    1    0 )
                (    0    0    1 )

      isym =  47     crystal symmetry, frac. trans. = (  0.250000  0.250000  0.250000 )
 cryst.   s = (    1    0    0 )
                (    1   -1    0 )
                (    1    0   -1 )

      isym =  48     crystal symmetry, frac. trans. = (  0.250000  0.250000  0.250000 )
 cryst.   s = (    1    0    0 )
                (    1    0   -1 )
                (    1   -1    0 )
     number of k points=    16 (reduced from 216)

                       cart. coord. in units 2pi/alat
        k(    1) = (   0.0000000   0.0000000   0.0000000), wk =   0.0092593
        k(    2) = (  -0.1666667   0.1666667  -0.1666667), wk =   0.0740741
        k(    3) = (  -0.3333333   0.3333333  -0.3333333), wk =   0.0740741
        k(    4) = (   0.5000000  -0.5000000   0.5000000), wk =   0.0370370
        k(    5) = (  -0.0000000   0.3333333  -0.0000000), wk =   0.0555556
        k(    6) = (  -0.1666667   0.5000000  -0.1666667), wk =   0.2222222
        k(    7) = (   0.6666667  -0.3333333   0.6666667), wk =   0.2222222
        k(    8) = (   0.5000000  -0.1666667   0.5000000), wk =   0.2222222
        k(    9) = (   0.3333333   0.0000000   0.3333333), wk =   0.1111111
        k(   10) = (  -0.0000000   0.6666667  -0.0000000), wk =   0.0555556
        k(   11) = (   0.8333333  -0.1666667   0.8333333), wk =   0.2222222
        k(   12) = (   0.6666667  -0.0000000   0.6666667), wk =   0.1111111
        k(   13) = (   0.0000000  -1.0000000   0.0000000), wk =   0.0277778
        k(   14) = (   0.6666667  -0.3333333   1.0000000), wk =   0.2222222
        k(   15) = (   0.5000000  -0.1666667   0.8333333), wk =   0.2222222
        k(   16) = (  -0.3333333  -1.0000000   0.0000000), wk =   0.1111111

                       cryst. coord.
        k(    1) = (   0.0000000   0.0000000   0.0000000), wk =   0.0092593
        k(    2) = (   0.0000000   0.0000000   0.1666667), wk =   0.0740741
        k(    3) = (   0.0000000   0.0000000   0.3333333), wk =   0.0740741
        k(    4) = (   0.0000000   0.0000000  -0.5000000), wk =   0.0370370
        k(    5) = (   0.0000000   0.1666667   0.1666667), wk =   0.0555556
        k(    6) = (   0.0000000   0.1666667   0.3333333), wk =   0.2222222
        k(    7) = (   0.0000000   0.1666667  -0.5000000), wk =   0.2222222
        k(    8) = (   0.0000000   0.1666667  -0.3333333), wk =   0.2222222
        k(    9) = (   0.0000000   0.1666667  -0.1666667), wk =   0.1111111
        k(   10) = (   0.0000000   0.3333333   0.3333333), wk =   0.0555556
        k(   11) = (   0.0000000   0.3333333  -0.5000000), wk =   0.2222222
        k(   12) = (   0.0000000   0.3333333  -0.3333333), wk =   0.1111111
        k(   13) = (   0.0000000  -0.5000000  -0.5000000), wk =   0.0277778
        k(   14) = (   0.1666667   0.3333333  -0.5000000), wk =   0.2222222
        k(   15) = (   0.1666667   0.3333333  -0.3333333), wk =   0.2222222
        k(   16) = (   0.1666667  -0.5000000  -0.3333333), wk =   0.1111111

     Davidson iterative-solver setup
     active k points           =           16
     plane waves per k point   =   1118 to 1158  
     number of Kohn-Sham states=            4
     Dense grid:     9185 G-vectors     FFT dimensions: (  32,   32,   32)

     G-vector sticks info
     --------------------
     sticks:   dense  smooth     PW     G-vecs:    dense   smooth      PW
     Sum         583     583    151                 9185    9185    1158

     Using Slab Decomposition
     FFT backend              = scipy
     MPI FFT processes        =            2
     Numba scalar kernels    = disabled
     Starting wfcs are    0 randomized atomic wfcs

     Initial potential from superposition of free atoms
     starting charge       7.9075, renormalised to       8.0000
     maximum Davidson subspace =           16
     full Hamiltonian matrices =      avoided
     nonlocal projector cache  = disabled

     Estimated static dynamical RAM per process >      18.59 MB

     Estimated max dynamical RAM per process >      21.30 MB

     Estimated total dynamical RAM >      42.60 MB

     iteration #   1     ecut=    40.00 Ry     beta= 0.10
     Davidson diagonalization with overlap

---- Real-time Memory Report at c_bands before calling an iterative solver
           151 MiB given to the printing process from OS
         14833 MiB available memory on the node where the printing process lives
          0.39 MB estimated for rho,v,vnew
          0.15 MB estimated for rho*nmix
          0.62 MB estimated for psi
          0.30 MB estimated for Davidson subspace
          2.41 MB estimated for FFT workspace
------------------
     ethr =  7.00E-04, avg # of iterations =  1.6
     avg # of Hpsi vectors =   8.8, max residual =  1.76E-02 Ha
     total cpu time spent up to now is        1.2 secs
     total energy              =     -15.7705485283 Ry
     estimated scf accuracy    <   5.6008242705e-02 Ry

     iteration #   2     ecut=    40.00 Ry     beta= 0.10
     Davidson diagonalization with overlap

---- Real-time Memory Report at c_bands before calling an iterative solver
           151 MiB given to the printing process from OS
         14833 MiB available memory on the node where the printing process lives
          0.39 MB estimated for rho,v,vnew
          0.15 MB estimated for rho*nmix
          0.62 MB estimated for psi
          0.30 MB estimated for Davidson subspace
          2.41 MB estimated for FFT workspace
------------------
     ethr =  7.00E-04, avg # of iterations =  1.0
     avg # of Hpsi vectors =   8.0, max residual =  8.55E-03 Ha
     total cpu time spent up to now is        1.3 secs
     total energy              =     -15.7593192750 Ry
     estimated scf accuracy    <   4.3936353513e-02 Ry

     iteration #   3     ecut=    40.00 Ry     beta= 0.10
     Davidson diagonalization with overlap

---- Real-time Memory Report at c_bands before calling an iterative solver
           151 MiB given to the printing process from OS
         14833 MiB available memory on the node where the printing process lives
          0.39 MB estimated for rho,v,vnew
          0.29 MB estimated for rho*nmix
          0.62 MB estimated for psi
          0.30 MB estimated for Davidson subspace
          2.41 MB estimated for FFT workspace
------------------
     ethr =  5.49E-04, avg # of iterations =  1.0
     avg # of Hpsi vectors =   8.0, max residual =  9.10E-03 Ha
     total cpu time spent up to now is        1.4 secs
     total energy              =     -15.7625491046 Ry
     estimated scf accuracy    <   6.0469123422e-04 Ry

     iteration #   4     ecut=    40.00 Ry     beta= 0.10
     Davidson diagonalization with overlap

---- Real-time Memory Report at c_bands before calling an iterative solver
           151 MiB given to the printing process from OS
         14833 MiB available memory on the node where the printing process lives
          0.39 MB estimated for rho,v,vnew
          0.44 MB estimated for rho*nmix
          0.62 MB estimated for psi
          0.30 MB estimated for Davidson subspace
          2.41 MB estimated for FFT workspace
------------------
     ethr =  7.56E-06, avg # of iterations =  3.1
     avg # of Hpsi vectors =  14.8, max residual =  1.05E-03 Ha
     total cpu time spent up to now is        1.7 secs
     total energy              =     -15.7622631666 Ry
     estimated scf accuracy    <   2.0664800335e-03 Ry

     iteration #   5     ecut=    40.00 Ry     beta= 0.10
     Davidson diagonalization with overlap

---- Real-time Memory Report at c_bands before calling an iterative solver
           151 MiB given to the printing process from OS
         14833 MiB available memory on the node where the printing process lives
          0.39 MB estimated for rho,v,vnew
          0.59 MB estimated for rho*nmix
          0.62 MB estimated for psi
          0.30 MB estimated for Davidson subspace
          2.41 MB estimated for FFT workspace
------------------
     ethr =  7.56E-06, avg # of iterations =  2.0
     avg # of Hpsi vectors =  11.8, max residual =  1.24E-03 Ha
     total cpu time spent up to now is        1.8 secs
     total energy              =     -15.7623444625 Ry
     estimated scf accuracy    <   2.9223133516e-04 Ry

     iteration #   6     ecut=    40.00 Ry     beta= 0.10
     Davidson diagonalization with overlap

---- Real-time Memory Report at c_bands before calling an iterative solver
           151 MiB given to the printing process from OS
         14833 MiB available memory on the node where the printing process lives
          0.39 MB estimated for rho,v,vnew
          0.73 MB estimated for rho*nmix
          0.62 MB estimated for psi
          0.30 MB estimated for Davidson subspace
          2.41 MB estimated for FFT workspace
------------------
     ethr =  3.65E-06, avg # of iterations =  1.0
     avg # of Hpsi vectors =   8.0, max residual =  7.70E-04 Ha
     total cpu time spent up to now is        2.0 secs
     total energy              =     -15.7623364174 Ry
     estimated scf accuracy    <   4.7983742270e-05 Ry

     iteration #   7     ecut=    40.00 Ry     beta= 0.10
     Davidson diagonalization with overlap

---- Real-time Memory Report at c_bands before calling an iterative solver
           151 MiB given to the printing process from OS
         14833 MiB available memory on the node where the printing process lives
          0.39 MB estimated for rho,v,vnew
          0.88 MB estimated for rho*nmix
          0.62 MB estimated for psi
          0.30 MB estimated for Davidson subspace
          2.41 MB estimated for FFT workspace
------------------
     ethr =  6.00E-07, avg # of iterations =  1.6
     avg # of Hpsi vectors =   8.7, max residual =  4.33E-04 Ha
     total cpu time spent up to now is        2.2 secs
     total energy              =     -15.7623393812 Ry
     estimated scf accuracy    <   9.8488477232e-06 Ry

     iteration #   8     ecut=    40.00 Ry     beta= 0.10
     Davidson diagonalization with overlap

---- Real-time Memory Report at c_bands before calling an iterative solver
           151 MiB given to the printing process from OS
         14833 MiB available memory on the node where the printing process lives
          0.39 MB estimated for rho,v,vnew
          1.03 MB estimated for rho*nmix
          0.62 MB estimated for psi
          0.30 MB estimated for Davidson subspace
          2.41 MB estimated for FFT workspace
------------------
     ethr =  1.23E-07, avg # of iterations =  1.7
     avg # of Hpsi vectors =   9.2, max residual =  2.20E-04 Ha
     total cpu time spent up to now is        2.3 secs
     total energy              =     -15.7623405223 Ry
     estimated scf accuracy    <   1.4871612525e-07 Ry

     End of self-consistent calculation

          k =   0.0000   0.0000   0.0000 (  1139 PWs)   bands (ev):
      -5.6432    6.4863    6.4863    6.4863

     occupation numbers
       1.0000    1.0000    1.0000    1.0000
          k =  -0.1667   0.1667  -0.1667 (  1137 PWs)   bands (ev):
      -5.2745    4.0849    6.0282    6.0282

     occupation numbers
       1.0000    1.0000    1.0000    1.0000
          k =  -0.3333   0.3333  -0.3333 (  1131 PWs)   bands (ev):
      -4.2358    1.0792    5.4725    5.4725

     occupation numbers
       1.0000    1.0000    1.0000    1.0000
          k =   0.5000  -0.5000   0.5000 (  1158 PWs)   bands (ev):
      -3.2514   -0.5976    5.2730    5.2730

     occupation numbers
       1.0000    1.0000    1.0000    1.0000
          k =  -0.0000   0.3333  -0.0000 (  1130 PWs)   bands (ev):
      -5.1492    4.4644    5.2664    5.2664

     occupation numbers
       1.0000    1.0000    1.0000    1.0000
          k =  -0.1667   0.5000  -0.1667 (  1128 PWs)   bands (ev):
      -4.3162    2.0119    4.4616    4.7054

     occupation numbers
       1.0000    1.0000    1.0000    1.0000
          k =   0.6667  -0.3333   0.6667 (  1133 PWs)   bands (ev):
      -3.0922   -0.2120    3.6630    4.6783

     occupation numbers
       1.0000    1.0000    1.0000    1.0000
          k =   0.5000  -0.1667   0.5000 (  1126 PWs)   bands (ev):
      -3.4889    0.4039    3.3808    5.1695

     occupation numbers
       1.0000    1.0000    1.0000    1.0000
          k =   0.3333   0.0000   0.3333 (  1127 PWs)   bands (ev):
      -4.6737    2.7461    4.0159    5.9174

     occupation numbers
       1.0000    1.0000    1.0000    1.0000
          k =  -0.0000   0.6667  -0.0000 (  1118 PWs)   bands (ev):
      -3.6994    1.4516    4.0206    4.0206

     occupation numbers
       1.0000    1.0000    1.0000    1.0000
          k =   0.8333  -0.1667   0.8333 (  1127 PWs)   bands (ev):
      -2.5081   -0.1338    2.7669    3.8829

     occupation numbers
       1.0000    1.0000    1.0000    1.0000
          k =   0.6667  -0.0000   0.6667 (  1131 PWs)   bands (ev):
      -2.3013   -0.3492    1.9627    4.3353

     occupation numbers
       1.0000    1.0000    1.0000    1.0000
          k =   0.0000  -1.0000   0.0000 (  1138 PWs)   bands (ev):
      -1.4113   -1.4113    3.5789    3.5789

     occupation numbers
       1.0000    1.0000    1.0000    1.0000
          k =   0.6667  -0.3333   1.0000 (  1124 PWs)   bands (ev):
      -3.3036    0.8015    2.8326    4.1398

     occupation numbers
       1.0000    1.0000    1.0000    1.0000
          k =   0.5000  -0.1667   0.8333 (  1138 PWs)   bands (ev):
      -2.2903   -0.4299    2.3860    3.6583

     occupation numbers
       1.0000    1.0000    1.0000    1.0000
          k =  -0.3333  -1.0000   0.0000 (  1126 PWs)   bands (ev):
      -1.2838   -1.2838    2.7517    2.7517

     occupation numbers
       1.0000    1.0000    1.0000    1.0000

     highest occupied level (ev):     6.4863

!    total energy              =     -15.7623405223 Ry
     estimated scf accuracy    <       0.0000001487 Ry

     The total energy is the sum of the following terms:
     one-electron contribution =       4.9287062964 Ry
     hartree contribution      =       1.0849094346 Ry
     xc contribution           =      -4.8429957704 Ry
     ewald contribution        =     -16.9329604830 Ry

     convergence has been achieved in   8 iterations

     peak resident memory/rank = 150.63 MiB
     aggregate rank high-water marks = 300.09 MiB

     init_run     :      0.41s CPU      0.41s WALL (       1 calls)
     electrons    :      1.90s CPU      1.90s WALL (       1 calls)

     Called by init_run:
     wfcinit      :      0.08s CPU      0.08s WALL (      16 calls)
     potinit      :      0.02s CPU      0.02s WALL (       1 calls)
     hinit0       :      0.06s CPU      0.06s WALL (       1 calls)
     sym_rho:init :      0.03s CPU      0.03s WALL (       1 calls)

     Called by electrons:
     c_bands      :      1.43s CPU      1.43s WALL (       9 calls)
     sum_band     :      0.29s CPU      0.29s WALL (       9 calls)
     v_of_rho     :      0.09s CPU      0.09s WALL (       9 calls)
     v_h          :      0.01s CPU      0.01s WALL (       9 calls)
     v_xc         :      0.08s CPU      0.08s WALL (       9 calls)
     mix_rho      :      0.01s CPU      0.01s WALL (       8 calls)

     Called by sum_band:
     sum_band:wfc    :      0.15s CPU      0.15s WALL (     144 calls)
     sum_band:rho    :      0.05s CPU      0.05s WALL (     144 calls)
     sum_band:collect:      0.00s CPU      0.00s WALL (       0 calls)
     sum_band:sym    :      0.09s CPU      0.09s WALL (       9 calls)

     Called by c_bands:
     init_us_2    :      0.23s CPU      0.23s WALL (     144 calls)
     cegterg      :      1.12s CPU      1.12s WALL (     144 calls)
     cdiaghg      :      0.08s CPU      0.08s WALL (     435 calls)
     cegterg:over :      0.02s CPU      0.02s WALL (     112 calls)
     cegterg:upda :      0.02s CPU      0.02s WALL (     435 calls)
     cegterg:last :      0.03s CPU      0.03s WALL (      18 calls)
     g_psi        :      0.02s CPU      0.02s WALL (     323 calls)

     Called by h_psi:
     h_psi        :      0.90s CPU      0.90s WALL (     501 calls)
     h_psi:calbec :      0.04s CPU      0.04s WALL (     501 calls)
     vloc_psi     :      0.81s CPU      0.81s WALL (     501 calls)
     add_vuspsi   :      0.03s CPU      0.03s WALL (     501 calls)
     fftw         :      0.91s CPU      0.91s WALL (    1275 calls)
     calbec       :      0.04s CPU      0.04s WALL (     501 calls)

     PWSCF        :      2.31s CPU      2.31s WALL

   JOB DONE.
