
     Program PWSCF v.7.5 starts on 31Jul2026 at 21: 1:14 

     This program is part of the open-source Quantum ESPRESSO suite
     for quantum simulation of materials; please cite
         "P. Giannozzi et al., J. Phys.:Condens. Matter 21 395502 (2009);
         "P. Giannozzi et al., J. Phys.:Condens. Matter 29 465901 (2017);
         "P. Giannozzi et al., J. Chem. Phys. 152 154105 (2020);
          URL http://www.quantum-espresso.org", 
     in publications or presentations arising from this work. More details at
     http://www.quantum-espresso.org/quote

     Parallel version (MPI), running on     2 processors

     MPI processes distributed on     1 nodes
     14423 MiB available memory on the printing compute node when the environment starts

     Reading input from benchmarks/Si.smearing.scf.in

     Current dimensions of program PWSCF are:
     Max number of different atomic species (ntypx) = 10
     Max number of k-points (npk) =  40000
     Max angular momentum in pseudopotentials (lmaxx) =  4

     IMPORTANT: XC functional enforced from input :
     Exchange-correlation= PBE
                           (   1   4   3   4   0   0   0)
     Any further DFT definition will be discarded
     Please, verify this is what you really want


     R & G space division:  proc/nbgrp/npool/nimage =       2
     Subspace diagonalization in iterative solution of the eigenvalue problem:
     a serial algorithm will be used


     Parallelization info
     --------------------
     sticks:   dense  smooth     PW     G-vecs:    dense   smooth      PW
     Min         291     291     81                 4592     4592     728
     Max         292     292     82                 4593     4593     731
     Sum         583     583    163                 9185     9185    1459

     Using Slab Decomposition



     bravais-lattice index     =            2
     lattice parameter (alat)  =      10.1800  a.u.
     unit-cell volume          =     263.7445 (a.u.)^3
     number of atoms/cell      =            2
     number of atomic types    =            1
     number of electrons       =         8.00
     number of Kohn-Sham states=            8
     kinetic-energy cutoff     =      40.0000  Ry
     charge density cutoff     =     160.0000  Ry
     scf convergence threshold =      1.0E-10
     mixing beta               =       0.2000
     number of iterations used =            8  plain     mixing
     Exchange-correlation= PBE
                           (   1   4   3   4   0   0   0)

     celldm(1)=  10.180000  celldm(2)=   0.000000  celldm(3)=   0.000000
     celldm(4)=   0.000000  celldm(5)=   0.000000  celldm(6)=   0.000000

     crystal axes: (cart. coord. in units of alat)
               a(1) = (  -0.500000   0.000000   0.500000 )  
               a(2) = (   0.000000   0.500000   0.500000 )  
               a(3) = (  -0.500000   0.500000   0.000000 )  

     reciprocal axes: (cart. coord. in units 2 pi/alat)
               b(1) = ( -1.000000 -1.000000  1.000000 )  
               b(2) = (  1.000000  1.000000  1.000000 )  
               b(3) = ( -1.000000  1.000000 -1.000000 )  


     PseudoPot. # 1 for Si read from file:
     /home/sjhong6230/qe-7.5/QEHeat/examples/pseudo/Si_ONCV_PBE-1.1.upf
     MD5 check sum: 8e512d7f7d6072c32a95e3e61f844fc4
     Pseudo is Norm-conserving, Zval =  4.0
     Generated using ONCVPSP code by D. R. Hamann
     Using radial grid of  602 points,  4 beta functions with: 
                l(1) =   0
                l(2) =   0
                l(3) =   1
                l(4) =   1

     atomic species   valence    mass     pseudopotential
     Si                4.00    28.08500     Si( 1.00)

     48 Sym. Ops., with inversion, found (24 have fractional translation)



   Cartesian axes

     site n.     atom                  positions (alat units)
         1        Si     tau(   1) = (   0.0000000   0.0000000   0.0000000  )
         2        Si     tau(   2) = (  -0.2500000   0.2500000   0.2500000  )

     number of k points=     3  Gaussian smearing, width (Ry)=  0.0500
                       cart. coord. in units 2pi/alat
        k(    1) = (   0.0000000   0.0000000   0.0000000), wk =   0.2500000
        k(    2) = (   0.5000000  -0.5000000   0.5000000), wk =   1.0000000
        k(    3) = (   0.0000000  -1.0000000   0.0000000), wk =   0.7500000

     Dense  grid:     9185 G-vectors     FFT dimensions: (  32,  32,  32)

     Estimated max dynamical RAM per process >       4.03 MB

     Estimated total dynamical RAM >       8.05 MB

     Initial potential from superposition of free atoms

     starting charge       7.9075, renormalised to       8.0000
     Starting wfcs are random

     total cpu time spent up to now is        0.1 secs

     Self-consistent Calculation

     iteration #  1     ecut=    40.00 Ry     beta= 0.20
     Davidson diagonalization with overlap
     ethr =  1.00E-02,  avg # of iterations =  7.7

     total cpu time spent up to now is        0.1 secs

     total energy              =     -15.58981538 Ry
     estimated scf accuracy    <       0.08724824 Ry

     iteration #  2     ecut=    40.00 Ry     beta= 0.20
     Davidson diagonalization with overlap
     ethr =  1.09E-03,  avg # of iterations =  1.7

     total cpu time spent up to now is        0.1 secs

     total energy              =     -15.58117935 Ry
     estimated scf accuracy    <       0.04949314 Ry

     iteration #  3     ecut=    40.00 Ry     beta= 0.20
     Davidson diagonalization with overlap
     ethr =  6.19E-04,  avg # of iterations =  1.0

     total cpu time spent up to now is        0.2 secs

     total energy              =     -15.58505074 Ry
     estimated scf accuracy    <       0.00082068 Ry

     iteration #  4     ecut=    40.00 Ry     beta= 0.20
     Davidson diagonalization with overlap
     ethr =  1.03E-05,  avg # of iterations =  8.0

     total cpu time spent up to now is        0.2 secs

     total energy              =     -15.58533588 Ry
     estimated scf accuracy    <       0.00027496 Ry

     iteration #  5     ecut=    40.00 Ry     beta= 0.20
     Davidson diagonalization with overlap
     ethr =  3.44E-06,  avg # of iterations =  1.3

     total cpu time spent up to now is        0.2 secs

     total energy              =     -15.58534504 Ry
     estimated scf accuracy    <       0.00000179 Ry

     iteration #  6     ecut=    40.00 Ry     beta= 0.20
     Davidson diagonalization with overlap
     ethr =  2.23E-08,  avg # of iterations =  3.7

     total cpu time spent up to now is        0.3 secs

     total energy              =     -15.58534706 Ry
     estimated scf accuracy    <       0.00000062 Ry

     iteration #  7     ecut=    40.00 Ry     beta= 0.20
     Davidson diagonalization with overlap
     ethr =  7.77E-09,  avg # of iterations =  2.0

     total cpu time spent up to now is        0.3 secs

     total energy              =     -15.58534721 Ry
     estimated scf accuracy    <       0.00000006 Ry

     iteration #  8     ecut=    40.00 Ry     beta= 0.20
     Davidson diagonalization with overlap
     ethr =  7.52E-10,  avg # of iterations =  2.0

     total cpu time spent up to now is        0.3 secs

     total energy              =     -15.58534722 Ry
     estimated scf accuracy    <          6.2E-09 Ry

     iteration #  9     ecut=    40.00 Ry     beta= 0.20
     Davidson diagonalization with overlap
     ethr =  7.73E-11,  avg # of iterations =  2.0

     total cpu time spent up to now is        0.3 secs

     total energy              =     -15.58534722 Ry
     estimated scf accuracy    <          2.7E-09 Ry

     iteration # 10     ecut=    40.00 Ry     beta= 0.20
     Davidson diagonalization with overlap
     ethr =  3.32E-11,  avg # of iterations =  1.3

     total cpu time spent up to now is        0.4 secs

     End of self-consistent calculation

          k = 0.0000 0.0000 0.0000 (  1139 PWs)   bands (ev):

    -5.5445   6.6103   6.6103   6.6103   9.1328   9.1328   9.1328  10.2301

          k = 0.5000-0.5000 0.5000 (  1158 PWs)   bands (ev):

    -3.1411  -0.5069   5.3862   5.3862   8.1855   9.8673   9.8673  14.2738

          k = 0.0000-1.0000 0.0000 (  1138 PWs)   bands (ev):

    -1.3008  -1.3008   3.6765   3.6765   7.1911   7.1911  16.9015  16.9017

     the Fermi energy is     6.7658 ev

!    total energy              =     -15.58534722 Ry
     estimated scf accuracy    <          4.2E-11 Ry
     smearing contrib. (-TS)   =      -0.02499583 Ry
     internal energy E=F+TS    =     -15.56035140 Ry

     The total energy is F=E-TS. E is the sum of the following terms:
     one-electron contribution =       5.09301933 Ry
     hartree contribution      =       1.15348628 Ry
     xc contribution           =      -4.87389652 Ry
     ewald contribution        =     -16.93296048 Ry

     convergence has been achieved in  10 iterations

     Writing all to output data dir /tmp/qe_porting_si_smearing/Si_smearing.save/ :
     XML data file, charge density, pseudopotentials, collected wavefunctions

     init_run     :      0.04s CPU      0.04s WALL (       1 calls)
     electrons    :      0.27s CPU      0.31s WALL (       1 calls)

     Called by init_run:
     wfcinit      :      0.01s CPU      0.01s WALL (       1 calls)
     potinit      :      0.01s CPU      0.01s WALL (       1 calls)
     hinit0       :      0.01s CPU      0.01s WALL (       1 calls)

     Called by electrons:
     c_bands      :      0.18s CPU      0.22s WALL (      10 calls)
     sum_band     :      0.04s CPU      0.04s WALL (      10 calls)
     v_of_rho     :      0.05s CPU      0.05s WALL (      11 calls)
     mix_rho      :      0.00s CPU      0.01s WALL (      10 calls)

     Called by c_bands:
     init_us_2    :      0.00s CPU      0.00s WALL (      63 calls)
     cegterg      :      0.18s CPU      0.20s WALL (      30 calls)

     Called by *egterg:
     cdiaghg      :      0.01s CPU      0.01s WALL (     122 calls)
     h_psi        :      0.15s CPU      0.17s WALL (     125 calls)
     g_psi        :      0.00s CPU      0.00s WALL (      92 calls)

     Called by h_psi:
     h_psi:calbec :      0.01s CPU      0.01s WALL (     125 calls)
     vloc_psi     :      0.13s CPU      0.15s WALL (     125 calls)
                                        0.00s GPU  (     125 calls)
     add_vuspsi   :      0.01s CPU      0.01s WALL (     125 calls)

     General routines
     calbec       :      0.01s CPU      0.01s WALL (     125 calls)
     fft          :      0.02s CPU      0.02s WALL (     109 calls)
     ffts         :      0.00s CPU      0.00s WALL (      10 calls)
     fftw         :      0.14s CPU      0.15s WALL (    1642 calls)

     Parallel routines

     PWSCF        :      0.31s CPU      0.37s WALL


   This run was terminated on:  21: 1:14  31Jul2026            

=------------------------------------------------------------------------------=
   JOB DONE.
=------------------------------------------------------------------------------=
