     Program PWSCF-PY v.0.6.12 starts on 31Jul2026 at 21:42:19

     Python reference port of the scalar SCF path in Quantum ESPRESSO pw.x
     Reading input from Si.smearing.scf.in

     bravais-lattice index     =            2
     lattice parameter (alat)  =      10.1800  a.u.
     unit-cell volume          =     263.7445 (a.u.)^3
     number of atoms/cell      =            2
     number of atomic types    =            1
     number of electrons       =         8.00
     number of Kohn-Sham states=            8
     kinetic-energy cutoff     =      40.0000 Ry
     charge-density cutoff     =     160.0000 Ry
     scf convergence threshold =      1.0E-10
     Exchange-correlation      =  SLA  PW   PBX  PBC

     celldm(1)=  10.180000  celldm(2)=   0.000000  celldm(3)=   0.000000  celldm(4)=   0.000000  celldm(5)=   0.000000  celldm(6)=   0.000000

     crystal axes: (cart. coord. in units of alat)
               a(1) = (  -0.500000   0.000000   0.500000 )
               a(2) = (   0.000000   0.500000   0.500000 )
               a(3) = (  -0.500000   0.500000   0.000000 )

     reciprocal axes: (cart. coord. in units 2 pi/alat)
               b(1) = (  -1.000000  -1.000000   1.000000 )
               b(2) = (   1.000000   1.000000   1.000000 )
               b(3) = (  -1.000000   1.000000  -1.000000 )

     PseudoPot. # 1 for Si read from file:
     /home/sjhong6230/qe-7.5/QEHeat/examples/pseudo/Si_ONCV_PBE-1.1.upf
     MD5 check sum: 8e512d7f7d6072c32a95e3e61f844fc4
     Pseudo is Norm-conserving, Zval =   4.0
     Using 4 radial beta functions, 8 (l,m) channels
     Angular momenta: l(1)=0 l(2)=0 l(3)=1 l(4)=1
     Nonlinear core correction = absent
     Atomic starting density   = present
     Atomic starting orbitals  = 0

     atomic species   valence       mass     pseudopotential
     Si              4.00    28.08500     Si_ONCV_PBE-1.1.upf

   Cartesian axes

     site n.     atom                  positions (alat units)
         1        Si     tau(   1) = (   0.0000000   0.0000000   0.0000000 )
         2        Si     tau(   2) = (  -0.2500000   0.2500000   0.2500000 )

   Crystallographic axes

     site n.     atom                  positions (cryst. coord.)
         1        Si     tau(   1) = (   0.0000000   0.0000000   0.0000000 )
         2        Si     tau(   2) = (   0.2500000   0.2500000   0.2500000 )

     diagonalization           = david
     charge mixing mode        = plain
     mixing beta               =       0.2000
     Broyden history dimension =            8

     number of symmetry operations =    48
     number of k points=     3 (reduced from 8)

                       cart. coord. in units 2pi/alat
        k(    1) = (   0.0000000   0.0000000   0.0000000), wk =   0.2500000
        k(    2) = (   0.5000000  -0.5000000   0.5000000), wk =   1.0000000
        k(    3) = (   0.0000000  -1.0000000   0.0000000), wk =   0.7500000

                       cryst. coord.
        k(    1) = (   0.0000000   0.0000000   0.0000000), wk =   0.2500000
        k(    2) = (   0.0000000   0.0000000  -0.5000000), wk =   1.0000000
        k(    3) = (   0.0000000  -0.5000000  -0.5000000), wk =   0.7500000

     Davidson iterative-solver setup
     active k points           =            3
     plane waves per k point   =   1138 to 1158  
     number of Kohn-Sham states=            8
     Dense grid:     9185 G-vectors     FFT dimensions: (  32,   32,   32)

     G-vector sticks info
     --------------------
     sticks:   dense  smooth     PW     G-vecs:    dense   smooth      PW
     Sum         583     583    151                 9185    9185    1158

     Using Slab Decomposition
     FFT backend              = scipy
     MPI FFT processes        =            2
     Numba scalar kernels    = disabled
     Starting wfcs are    0 randomized atomic wfcs

     Initial potential from superposition of free atoms
     starting charge       7.9075, renormalised to       8.0000
     maximum Davidson subspace =           32
     full Hamiltonian matrices =      avoided
     nonlocal projector cache  = disabled

     Estimated static dynamical RAM per process >      17.10 MB

     Estimated max dynamical RAM per process >      22.51 MB

     Estimated total dynamical RAM >      45.01 MB

     iteration #   1     ecut=    40.00 Ry     beta= 0.20
     Davidson diagonalization with overlap

---- Real-time Memory Report at c_bands before calling an iterative solver
           140 MiB given to the printing process from OS
         14842 MiB available memory on the node where the printing process lives
          0.39 MB estimated for rho,v,vnew
          0.15 MB estimated for rho*nmix
          0.07 MB estimated for psi
          0.59 MB estimated for Davidson subspace
          4.82 MB estimated for FFT workspace
------------------
     ethr =  1.00E-02, avg # of iterations =  7.0
     avg # of Hpsi vectors =  58.3, max residual =  5.17E-02 Ha
     total cpu time spent up to now is        0.5 secs
     total energy              =     -15.5909412827 Ry
     estimated scf accuracy    <   8.7338556296e-02 Ry

     iteration #   2     ecut=    40.00 Ry     beta= 0.20
     Davidson diagonalization with overlap

---- Real-time Memory Report at c_bands before calling an iterative solver
           166 MiB given to the printing process from OS
         14799 MiB available memory on the node where the printing process lives
          0.39 MB estimated for rho,v,vnew
          0.15 MB estimated for rho*nmix
          0.29 MB estimated for psi
          0.59 MB estimated for Davidson subspace
          4.82 MB estimated for FFT workspace
------------------
     ethr =  1.09E-03, avg # of iterations =  3.0
     avg # of Hpsi vectors =  18.0, max residual =  1.88E-02 Ha
     total cpu time spent up to now is        0.6 secs
     total energy              =     -15.5815172557 Ry
     estimated scf accuracy    <   4.9236240149e-02 Ry

     iteration #   3     ecut=    40.00 Ry     beta= 0.20
     Davidson diagonalization with overlap

---- Real-time Memory Report at c_bands before calling an iterative solver
           166 MiB given to the printing process from OS
         14799 MiB available memory on the node where the printing process lives
          0.39 MB estimated for rho,v,vnew
          0.29 MB estimated for rho*nmix
          0.29 MB estimated for psi
          0.59 MB estimated for Davidson subspace
          4.82 MB estimated for FFT workspace
------------------
     ethr =  6.15E-04, avg # of iterations =  1.3
     avg # of Hpsi vectors =  16.3, max residual =  9.29E-03 Ha
     total cpu time spent up to now is        0.7 secs
     total energy              =     -15.5851209588 Ry
     estimated scf accuracy    <   7.8501229822e-04 Ry

     iteration #   4     ecut=    40.00 Ry     beta= 0.20
     Davidson diagonalization with overlap

---- Real-time Memory Report at c_bands before calling an iterative solver
           166 MiB given to the printing process from OS
         14799 MiB available memory on the node where the printing process lives
          0.39 MB estimated for rho,v,vnew
          0.44 MB estimated for rho*nmix
          0.29 MB estimated for psi
          0.59 MB estimated for Davidson subspace
          4.82 MB estimated for FFT workspace
------------------
     ethr =  9.81E-06, avg # of iterations =  4.0
     avg # of Hpsi vectors =  26.7, max residual =  1.86E-03 Ha
     total cpu time spent up to now is        0.8 secs
     total energy              =     -15.5853403994 Ry
     estimated scf accuracy    <   1.7779136358e-04 Ry

     iteration #   5     ecut=    40.00 Ry     beta= 0.20
     Davidson diagonalization with overlap

---- Real-time Memory Report at c_bands before calling an iterative solver
           166 MiB given to the printing process from OS
         14799 MiB available memory on the node where the printing process lives
          0.39 MB estimated for rho,v,vnew
          0.59 MB estimated for rho*nmix
          0.29 MB estimated for psi
          0.59 MB estimated for Davidson subspace
          4.82 MB estimated for FFT workspace
------------------
     ethr =  2.22E-06, avg # of iterations =  1.7
     avg # of Hpsi vectors =  17.0, max residual =  7.99E-04 Ha
     total cpu time spent up to now is        0.8 secs
     total energy              =     -15.5853468328 Ry
     estimated scf accuracy    <   9.4579180430e-07 Ry

     iteration #   6     ecut=    40.00 Ry     beta= 0.20
     Davidson diagonalization with overlap

---- Real-time Memory Report at c_bands before calling an iterative solver
           166 MiB given to the printing process from OS
         14799 MiB available memory on the node where the printing process lives
          0.39 MB estimated for rho,v,vnew
          0.73 MB estimated for rho*nmix
          0.29 MB estimated for psi
          0.59 MB estimated for Davidson subspace
          4.82 MB estimated for FFT workspace
------------------
     ethr =  1.18E-08, avg # of iterations =  5.7
     avg # of Hpsi vectors =  34.7, max residual =  7.22E-05 Ha
     total cpu time spent up to now is        0.9 secs
     total energy              =     -15.5853471758 Ry
     estimated scf accuracy    <   3.5382605139e-06 Ry

     iteration #   7     ecut=    40.00 Ry     beta= 0.20
     Davidson diagonalization with overlap

---- Real-time Memory Report at c_bands before calling an iterative solver
           166 MiB given to the printing process from OS
         14799 MiB available memory on the node where the printing process lives
          0.39 MB estimated for rho,v,vnew
          0.88 MB estimated for rho*nmix
          0.29 MB estimated for psi
          0.59 MB estimated for Davidson subspace
          4.82 MB estimated for FFT workspace
------------------
     ethr =  1.18E-08, avg # of iterations =  1.0
     avg # of Hpsi vectors =  16.0, max residual =  5.60E-05 Ha
     total cpu time spent up to now is        1.0 secs
     total energy              =     -15.5853472186 Ry
     estimated scf accuracy    <   1.6730717000e-09 Ry

     iteration #   8     ecut=    40.00 Ry     beta= 0.20
     Davidson diagonalization with overlap

---- Real-time Memory Report at c_bands before calling an iterative solver
           166 MiB given to the printing process from OS
         14799 MiB available memory on the node where the printing process lives
          0.39 MB estimated for rho,v,vnew
          1.03 MB estimated for rho*nmix
          0.29 MB estimated for psi
          0.59 MB estimated for Davidson subspace
          4.82 MB estimated for FFT workspace
------------------
     ethr =  2.09E-11, avg # of iterations =  7.3
     avg # of Hpsi vectors =  42.0, max residual =  5.15E-06 Ha
     total cpu time spent up to now is        1.1 secs
     total energy              =     -15.5853472207 Ry
     estimated scf accuracy    <   3.4287261488e-10 Ry

     iteration #   9     ecut=    40.00 Ry     beta= 0.20
     Davidson diagonalization with overlap

---- Real-time Memory Report at c_bands before calling an iterative solver
           166 MiB given to the printing process from OS
         14799 MiB available memory on the node where the printing process lives
          0.39 MB estimated for rho,v,vnew
          1.18 MB estimated for rho*nmix
          0.29 MB estimated for psi
          0.59 MB estimated for Davidson subspace
          4.82 MB estimated for FFT workspace
------------------
     ethr =  4.29E-12, avg # of iterations =  3.0
     avg # of Hpsi vectors =  24.0, max residual =  1.28E-06 Ha
     total cpu time spent up to now is        1.2 secs
     total energy              =     -15.5853472210 Ry
     estimated scf accuracy    <   2.7170533889e-10 Ry

     iteration #  10     ecut=    40.00 Ry     beta= 0.20
     Davidson diagonalization with overlap

---- Real-time Memory Report at c_bands before calling an iterative solver
           166 MiB given to the printing process from OS
         14799 MiB available memory on the node where the printing process lives
          0.39 MB estimated for rho,v,vnew
          1.32 MB estimated for rho*nmix
          0.29 MB estimated for psi
          0.59 MB estimated for Davidson subspace
          4.82 MB estimated for FFT workspace
------------------
     ethr =  3.40E-12, avg # of iterations =  2.3
     avg # of Hpsi vectors =  22.7, max residual =  8.28E-07 Ha
     total cpu time spent up to now is        1.3 secs
     total energy              =     -15.5853472211 Ry
     estimated scf accuracy    <   2.7111518823e-12 Ry

     End of self-consistent calculation

          k =   0.0000   0.0000   0.0000 (  1139 PWs)   bands (ev):
      -5.5445    6.6104    6.6104    6.6104    9.1328    9.1328    9.1328   10.2301

     occupation numbers
       1.0000    0.6267    0.6267    0.6267    0.0000    0.0000    0.0000    0.0000
          k =   0.5000  -0.5000   0.5000 (  1158 PWs)   bands (ev):
      -3.1411   -0.5069    5.3862    5.3862    8.1855    9.8673    9.8673   14.2738

     occupation numbers
       1.0000    1.0000    0.9979    0.9979    0.0016    0.0000    0.0000    0.0000
          k =   0.0000  -1.0000   0.0000 (  1138 PWs)   bands (ev):
      -1.3008   -1.3008    3.6766    3.6766    7.1911    7.1911   16.9014   16.9014

     occupation numbers
       1.0000    1.0000    1.0000    1.0000    0.1883    0.1883    0.0000    0.0000

     the Fermi energy is     6.7658 ev

!    total energy              =     -15.5853472211 Ry
     estimated scf accuracy    <       0.0000000000 Ry
     smearing contrib. (-TS)   =      -0.0249958640 Ry
     internal energy E=F+TS    =     -15.5603513571 Ry

     The total energy is F=E-TS. E is the sum of the following terms:
     one-electron contribution =       5.0930212024 Ry
     hartree contribution      =       1.1534832116 Ry
     xc contribution           =      -4.8738952881 Ry
     ewald contribution        =     -16.9329604830 Ry

     convergence has been achieved in  10 iterations

     peak resident memory/rank = 166.47 MiB
     aggregate rank high-water marks = 332.35 MiB

     init_run     :      0.23s CPU      0.23s WALL (       1 calls)
     electrons    :      1.07s CPU      1.09s WALL (       1 calls)

     Called by init_run:
     wfcinit      :      0.05s CPU      0.07s WALL (       3 calls)
     potinit      :      0.02s CPU      0.02s WALL (       1 calls)
     hinit0       :      0.03s CPU      0.03s WALL (       1 calls)
     sym_rho:init :      0.03s CPU      0.03s WALL (       1 calls)

     Called by electrons:
     c_bands      :      0.69s CPU      0.71s WALL (      10 calls)
     sum_band     :      0.18s CPU      0.18s WALL (      10 calls)
     v_of_rho     :      0.08s CPU      0.08s WALL (      10 calls)
     v_h          :      0.01s CPU      0.01s WALL (      10 calls)
     v_xc         :      0.07s CPU      0.07s WALL (      10 calls)
     mix_rho      :      0.02s CPU      0.02s WALL (      10 calls)

     Called by sum_band:
     sum_band:wfc    :      0.05s CPU      0.05s WALL (      30 calls)
     sum_band:rho    :      0.02s CPU      0.02s WALL (      30 calls)
     sum_band:collect:      0.00s CPU      0.00s WALL (       0 calls)
     sum_band:sym    :      0.10s CPU      0.10s WALL (      10 calls)

     Called by c_bands:
     init_us_2    :      0.13s CPU      0.13s WALL (      30 calls)
     cegterg      :      0.51s CPU      0.51s WALL (      30 calls)
     cdiaghg      :      0.05s CPU      0.05s WALL (     136 calls)
     cegterg:over :      0.01s CPU      0.01s WALL (      27 calls)
     cegterg:upda :      0.01s CPU      0.01s WALL (     136 calls)
     cegterg:last :      0.02s CPU      0.02s WALL (       6 calls)
     g_psi        :      0.01s CPU      0.01s WALL (     109 calls)

     Called by h_psi:
     h_psi        :      0.42s CPU      0.43s WALL (     148 calls)
     h_psi:calbec :      0.03s CPU      0.04s WALL (     148 calls)
     vloc_psi     :      0.37s CPU      0.37s WALL (     148 calls)
     add_vuspsi   :      0.01s CPU      0.01s WALL (     148 calls)
     fftw         :      0.43s CPU      0.43s WALL (     478 calls)
     calbec       :      0.03s CPU      0.04s WALL (     148 calls)

     PWSCF        :      1.30s CPU      1.32s WALL

   JOB DONE.
