     Program PWSCF-PY v.0.6.8 starts on 31Jul2026 at 18:12:05

     Python reference port of the scalar SCF path in Quantum ESPRESSO pw.x
     Reading input from benchmarks/Si.sym.scf.in

     bravais-lattice index     =            2
     lattice parameter (alat)  =      10.1800  a.u.
     unit-cell volume          =     263.7445 (a.u.)^3
     number of atoms/cell      =            2
     number of atomic types    =            1
     number of electrons       =         8.00
     number of Kohn-Sham states=            4
     kinetic-energy cutoff     =      80.0000 Ry
     charge-density cutoff     =     320.0000 Ry
     scf convergence threshold =      1.0E-06
     Exchange-correlation      =  SLA  PZ   NOGX NOGC

     celldm(1)=  10.180000  celldm(2)=   0.000000  celldm(3)=   0.000000  celldm(4)=   0.000000  celldm(5)=   0.000000  celldm(6)=   0.000000

     crystal axes: (cart. coord. in units of alat)
               a(1) = (  -0.500000   0.000000   0.500000 )
               a(2) = (   0.000000   0.500000   0.500000 )
               a(3) = (  -0.500000   0.500000   0.000000 )

     reciprocal axes: (cart. coord. in units 2 pi/alat)
               b(1) = (  -1.000000  -1.000000   1.000000 )
               b(2) = (   1.000000   1.000000   1.000000 )
               b(3) = (  -1.000000   1.000000  -1.000000 )

     PseudoPot. # 1 for Si read from file:
     /home/sjhong6230/QE_porting_test/Si_sym_PZ/pseudo/Si.upf
     MD5 check sum: f98dec029984cdc523c2feab7a820a0e
     Pseudo is Norm-conserving, Zval =   4.0
     Using 6 radial beta functions, 18 (l,m) channels
     Angular momenta: l(1)=0 l(2)=0 l(3)=1 l(4)=1 l(5)=2 l(6)=2
     Nonlinear core correction = absent
     Atomic starting density   = present
     Atomic starting orbitals  = 4

     atomic species   valence       mass     pseudopotential
     Si              4.00    28.08500     Si.upf

   Cartesian axes

     site n.     atom                  positions (alat units)
         1        Si     tau(   1) = (   0.0000000   0.0000000   0.0000000 )
         2        Si     tau(   2) = (  -0.2500000   0.2500000   0.2500000 )

   Crystallographic axes

     site n.     atom                  positions (cryst. coord.)
         1        Si     tau(   1) = (   0.0000000   0.0000000   0.0000000 )
         2        Si     tau(   2) = (   0.2500000   0.2500000   0.2500000 )

     diagonalization           = david
     charge mixing mode        = plain
     mixing beta               =       0.1000
     Broyden history dimension =            8

     number of symmetry operations =    48

      isym =   1     crystal symmetry, frac. trans. = (  0.000000  0.000000  0.000000 )
 cryst.   s = (   -1    0    0 )
                (   -1    0    1 )
                (   -1    1    0 )

      isym =   2     crystal symmetry, frac. trans. = (  0.000000  0.000000  0.000000 )
 cryst.   s = (   -1    0    0 )
                (   -1    1    0 )
                (   -1    0    1 )

      isym =   3     crystal symmetry, frac. trans. = (  0.250000  0.250000  0.250000 )
 cryst.   s = (   -1    0    0 )
                (    0   -1    0 )
                (    0    0   -1 )

      isym =   4     crystal symmetry, frac. trans. = (  0.250000  0.250000  0.250000 )
 cryst.   s = (   -1    0    0 )
                (    0    0   -1 )
                (    0   -1    0 )

      isym =   5     crystal symmetry, frac. trans. = (  0.000000  0.000000  0.000000 )
 cryst.   s = (   -1    0    1 )
                (   -1    0    0 )
                (   -1    1    0 )

      isym =   6     crystal symmetry, frac. trans. = (  0.000000  0.000000  0.000000 )
 cryst.   s = (   -1    0    1 )
                (   -1    1    0 )
                (   -1    0    0 )

      isym =   7     crystal symmetry, frac. trans. = (  0.250000  0.250000  0.250000 )
 cryst.   s = (   -1    0    1 )
                (    0   -1    1 )
                (    0    0    1 )

      isym =   8     crystal symmetry, frac. trans. = (  0.250000  0.250000  0.250000 )
 cryst.   s = (   -1    0    1 )
                (    0    0    1 )
                (    0   -1    1 )

      isym =   9     crystal symmetry, frac. trans. = (  0.000000  0.000000  0.000000 )
 cryst.   s = (   -1    1    0 )
                (   -1    0    0 )
                (   -1    0    1 )

      isym =  10     crystal symmetry, frac. trans. = (  0.000000  0.000000  0.000000 )
 cryst.   s = (   -1    1    0 )
                (   -1    0    1 )
                (   -1    0    0 )

      isym =  11     crystal symmetry, frac. trans. = (  0.250000  0.250000  0.250000 )
 cryst.   s = (   -1    1    0 )
                (    0    1   -1 )
                (    0    1    0 )

      isym =  12     crystal symmetry, frac. trans. = (  0.250000  0.250000  0.250000 )
 cryst.   s = (   -1    1    0 )
                (    0    1    0 )
                (    0    1   -1 )

      isym =  13     crystal symmetry, frac. trans. = (  0.250000  0.250000  0.250000 )
 cryst.   s = (    0   -1    0 )
                (   -1    0    0 )
                (    0    0   -1 )

      isym =  14     crystal symmetry, frac. trans. = (  0.000000  0.000000  0.000000 )
 cryst.   s = (    0   -1    0 )
                (    0   -1    1 )
                (    1   -1    0 )

      isym =  15     crystal symmetry, frac. trans. = (  0.250000  0.250000  0.250000 )
 cryst.   s = (    0   -1    0 )
                (    0    0   -1 )
                (   -1    0    0 )

      isym =  16     crystal symmetry, frac. trans. = (  0.000000  0.000000  0.000000 )
 cryst.   s = (    0   -1    0 )
                (    1   -1    0 )
                (    0   -1    1 )

      isym =  17     crystal symmetry, frac. trans. = (  0.250000  0.250000  0.250000 )
 cryst.   s = (    0   -1    1 )
                (   -1    0    1 )
                (    0    0    1 )

      isym =  18     crystal symmetry, frac. trans. = (  0.000000  0.000000  0.000000 )
 cryst.   s = (    0   -1    1 )
                (    0   -1    0 )
                (    1   -1    0 )

      isym =  19     crystal symmetry, frac. trans. = (  0.250000  0.250000  0.250000 )
 cryst.   s = (    0   -1    1 )
                (    0    0    1 )
                (   -1    0    1 )

      isym =  20     crystal symmetry, frac. trans. = (  0.000000  0.000000  0.000000 )
 cryst.   s = (    0   -1    1 )
                (    1   -1    0 )
                (    0   -1    0 )

      isym =  21     crystal symmetry, frac. trans. = (  0.250000  0.250000  0.250000 )
 cryst.   s = (    0    0   -1 )
                (   -1    0    0 )
                (    0   -1    0 )

      isym =  22     crystal symmetry, frac. trans. = (  0.250000  0.250000  0.250000 )
 cryst.   s = (    0    0   -1 )
                (    0   -1    0 )
                (   -1    0    0 )

      isym =  23     crystal symmetry, frac. trans. = (  0.000000  0.000000  0.000000 )
 cryst.   s = (    0    0   -1 )
                (    0    1   -1 )
                (    1    0   -1 )

      isym =  24     crystal symmetry, frac. trans. = (  0.000000  0.000000  0.000000 )
 cryst.   s = (    0    0   -1 )
                (    1    0   -1 )
                (    0    1   -1 )

      isym =  25     crystal symmetry, frac. trans. = (  0.250000  0.250000  0.250000 )
 cryst.   s = (    0    0    1 )
                (   -1    0    1 )
                (    0   -1    1 )

      isym =  26     crystal symmetry, frac. trans. = (  0.250000  0.250000  0.250000 )
 cryst.   s = (    0    0    1 )
                (    0   -1    1 )
                (   -1    0    1 )

      isym =  27     crystal symmetry, frac. trans. = (  0.000000  0.000000  0.000000 )
 cryst.   s = (    0    0    1 )
                (    0    1    0 )
                (    1    0    0 )

      isym =  28     crystal symmetry, frac. trans. = (  0.000000  0.000000  0.000000 )
 cryst.   s = (    0    0    1 )
                (    1    0    0 )
                (    0    1    0 )

      isym =  29     crystal symmetry, frac. trans. = (  0.250000  0.250000  0.250000 )
 cryst.   s = (    0    1   -1 )
                (   -1    1    0 )
                (    0    1    0 )

      isym =  30     crystal symmetry, frac. trans. = (  0.000000  0.000000  0.000000 )
 cryst.   s = (    0    1   -1 )
                (    0    0   -1 )
                (    1    0   -1 )

      isym =  31     crystal symmetry, frac. trans. = (  0.250000  0.250000  0.250000 )
 cryst.   s = (    0    1   -1 )
                (    0    1    0 )
                (   -1    1    0 )

      isym =  32     crystal symmetry, frac. trans. = (  0.000000  0.000000  0.000000 )
 cryst.   s = (    0    1   -1 )
                (    1    0   -1 )
                (    0    0   -1 )

      isym =  33     crystal symmetry, frac. trans. = (  0.250000  0.250000  0.250000 )
 cryst.   s = (    0    1    0 )
                (   -1    1    0 )
                (    0    1   -1 )

      isym =  34     crystal symmetry, frac. trans. = (  0.000000  0.000000  0.000000 )
 cryst.   s = (    0    1    0 )
                (    0    0    1 )
                (    1    0    0 )

      isym =  35     crystal symmetry, frac. trans. = (  0.250000  0.250000  0.250000 )
 cryst.   s = (    0    1    0 )
                (    0    1   -1 )
                (   -1    1    0 )

      isym =  36     crystal symmetry, frac. trans. = (  0.000000  0.000000  0.000000 )
 cryst.   s = (    0    1    0 )
                (    1    0    0 )
                (    0    0    1 )

      isym =  37     crystal symmetry, frac. trans. = (  0.000000  0.000000  0.000000 )
 cryst.   s = (    1   -1    0 )
                (    0   -1    0 )
                (    0   -1    1 )

      isym =  38     crystal symmetry, frac. trans. = (  0.000000  0.000000  0.000000 )
 cryst.   s = (    1   -1    0 )
                (    0   -1    1 )
                (    0   -1    0 )

      isym =  39     crystal symmetry, frac. trans. = (  0.250000  0.250000  0.250000 )
 cryst.   s = (    1   -1    0 )
                (    1    0   -1 )
                (    1    0    0 )

      isym =  40     crystal symmetry, frac. trans. = (  0.250000  0.250000  0.250000 )
 cryst.   s = (    1   -1    0 )
                (    1    0    0 )
                (    1    0   -1 )

      isym =  41     crystal symmetry, frac. trans. = (  0.000000  0.000000  0.000000 )
 cryst.   s = (    1    0   -1 )
                (    0    0   -1 )
                (    0    1   -1 )

      isym =  42     crystal symmetry, frac. trans. = (  0.000000  0.000000  0.000000 )
 cryst.   s = (    1    0   -1 )
                (    0    1   -1 )
                (    0    0   -1 )

      isym =  43     crystal symmetry, frac. trans. = (  0.250000  0.250000  0.250000 )
 cryst.   s = (    1    0   -1 )
                (    1   -1    0 )
                (    1    0    0 )

      isym =  44     crystal symmetry, frac. trans. = (  0.250000  0.250000  0.250000 )
 cryst.   s = (    1    0   -1 )
                (    1    0    0 )
                (    1   -1    0 )

      isym =  45     crystal symmetry, frac. trans. = (  0.000000  0.000000  0.000000 )
 cryst.   s = (    1    0    0 )
                (    0    0    1 )
                (    0    1    0 )

      isym =  46     crystal symmetry, frac. trans. = (  0.000000  0.000000  0.000000 )
 cryst.   s = (    1    0    0 )
                (    0    1    0 )
                (    0    0    1 )

      isym =  47     crystal symmetry, frac. trans. = (  0.250000  0.250000  0.250000 )
 cryst.   s = (    1    0    0 )
                (    1   -1    0 )
                (    1    0   -1 )

      isym =  48     crystal symmetry, frac. trans. = (  0.250000  0.250000  0.250000 )
 cryst.   s = (    1    0    0 )
                (    1    0   -1 )
                (    1   -1    0 )
     number of k points=    16 (reduced from 216)

                       cart. coord. in units 2pi/alat
        k(    1) = (   0.0000000   0.0000000   0.0000000), wk =   0.0092593
        k(    2) = (  -0.1666667   0.1666667  -0.1666667), wk =   0.0740741
        k(    3) = (  -0.3333333   0.3333333  -0.3333333), wk =   0.0740741
        k(    4) = (   0.5000000  -0.5000000   0.5000000), wk =   0.0370370
        k(    5) = (  -0.0000000   0.3333333  -0.0000000), wk =   0.0555556
        k(    6) = (  -0.1666667   0.5000000  -0.1666667), wk =   0.2222222
        k(    7) = (   0.6666667  -0.3333333   0.6666667), wk =   0.2222222
        k(    8) = (   0.5000000  -0.1666667   0.5000000), wk =   0.2222222
        k(    9) = (   0.3333333   0.0000000   0.3333333), wk =   0.1111111
        k(   10) = (  -0.0000000   0.6666667  -0.0000000), wk =   0.0555556
        k(   11) = (   0.8333333  -0.1666667   0.8333333), wk =   0.2222222
        k(   12) = (   0.6666667  -0.0000000   0.6666667), wk =   0.1111111
        k(   13) = (   0.0000000  -1.0000000   0.0000000), wk =   0.0277778
        k(   14) = (   0.6666667  -0.3333333   1.0000000), wk =   0.2222222
        k(   15) = (   0.5000000  -0.1666667   0.8333333), wk =   0.2222222
        k(   16) = (  -0.3333333  -1.0000000   0.0000000), wk =   0.1111111

                       cryst. coord.
        k(    1) = (   0.0000000   0.0000000   0.0000000), wk =   0.0092593
        k(    2) = (   0.0000000   0.0000000   0.1666667), wk =   0.0740741
        k(    3) = (   0.0000000   0.0000000   0.3333333), wk =   0.0740741
        k(    4) = (   0.0000000   0.0000000  -0.5000000), wk =   0.0370370
        k(    5) = (   0.0000000   0.1666667   0.1666667), wk =   0.0555556
        k(    6) = (   0.0000000   0.1666667   0.3333333), wk =   0.2222222
        k(    7) = (   0.0000000   0.1666667  -0.5000000), wk =   0.2222222
        k(    8) = (   0.0000000   0.1666667  -0.3333333), wk =   0.2222222
        k(    9) = (   0.0000000   0.1666667  -0.1666667), wk =   0.1111111
        k(   10) = (   0.0000000   0.3333333   0.3333333), wk =   0.0555556
        k(   11) = (   0.0000000   0.3333333  -0.5000000), wk =   0.2222222
        k(   12) = (   0.0000000   0.3333333  -0.3333333), wk =   0.1111111
        k(   13) = (   0.0000000  -0.5000000  -0.5000000), wk =   0.0277778
        k(   14) = (   0.1666667   0.3333333  -0.5000000), wk =   0.2222222
        k(   15) = (   0.1666667   0.3333333  -0.3333333), wk =   0.2222222
        k(   16) = (   0.1666667  -0.5000000  -0.3333333), wk =   0.1111111

     Davidson iterative-solver setup
     active k points           =           16
     plane waves per k point   =   3143 to 3250  
     number of Kohn-Sham states=            4
     Dense grid:    25605 G-vectors     FFT dimensions: (  48,   48,   48)

     G-vector sticks info
     --------------------
     sticks:   dense  smooth     PW     G-vecs:    dense   smooth      PW
     Sum        1147    1147    290                25605   25605    3250

     Using Slab Decomposition
     FFT backend              = scipy
     MPI FFT processes        =            2
     Numba scalar kernels    = disabled
     Starting wfcs are    8 randomized atomic wfcs

     Initial potential from superposition of free atoms
     starting charge       7.9989, renormalised to       8.0000
     maximum Davidson subspace =           16
     full Hamiltonian matrices =      avoided
     nonlocal projector cache  = disabled

     Estimated static dynamical RAM per process >      60.92 MB

     Estimated max dynamical RAM per process >      77.69 MB

     Estimated total dynamical RAM >     155.38 MB

     iteration #   1     ecut=    80.00 Ry     beta= 0.10
     Davidson diagonalization with overlap

---- Real-time Memory Report at c_bands before calling an iterative solver
           174 MiB given to the printing process from OS
         14701 MiB available memory on the node where the printing process lives
          1.33 MB estimated for rho,v,vnew
          0.41 MB estimated for rho*nmix
          0.21 MB estimated for psi
          0.83 MB estimated for Davidson subspace
         15.94 MB estimated for FFT workspace
------------------
     ethr =  1.00E-02, avg # of iterations =  4.1
     avg # of Hpsi vectors =  19.2, max residual =  2.06E-01 Ha
     total cpu time spent up to now is        2.7 secs
     total energy              =     -24.3903841088 Ry
     estimated scf accuracy    <   1.9331401962e+00 Ry

     iteration #   2     ecut=    80.00 Ry     beta= 0.10
     Davidson diagonalization with overlap

---- Real-time Memory Report at c_bands before calling an iterative solver
           189 MiB given to the printing process from OS
         14691 MiB available memory on the node where the printing process lives
          1.33 MB estimated for rho,v,vnew
          0.41 MB estimated for rho*nmix
          1.84 MB estimated for psi
          0.83 MB estimated for Davidson subspace
         15.94 MB estimated for FFT workspace
------------------
     ethr =  1.00E-02, avg # of iterations =  2.8
     avg # of Hpsi vectors =  15.9, max residual =  3.53E-02 Ha
     total cpu time spent up to now is        3.4 secs
     total energy              =     -37.6620878803 Ry
     estimated scf accuracy    <   1.0189226046e+01 Ry

     iteration #   3     ecut=    80.00 Ry     beta= 0.10
     Davidson diagonalization with overlap

---- Real-time Memory Report at c_bands before calling an iterative solver
           191 MiB given to the printing process from OS
         14690 MiB available memory on the node where the printing process lives
          1.33 MB estimated for rho,v,vnew
          0.82 MB estimated for rho*nmix
          1.84 MB estimated for psi
          0.83 MB estimated for Davidson subspace
         15.94 MB estimated for FFT workspace
------------------
     ethr =  1.00E-02, avg # of iterations =  1.0
     avg # of Hpsi vectors =   8.0, max residual =  1.22E-02 Ha
     total cpu time spent up to now is        3.8 secs
     total energy              =     -32.2364086862 Ry
     estimated scf accuracy    <   1.1878020971e+01 Ry

     iteration #   4     ecut=    80.00 Ry     beta= 0.10
     Davidson diagonalization with overlap

---- Real-time Memory Report at c_bands before calling an iterative solver
           192 MiB given to the printing process from OS
         14690 MiB available memory on the node where the printing process lives
          1.33 MB estimated for rho,v,vnew
          1.23 MB estimated for rho*nmix
          1.84 MB estimated for psi
          0.83 MB estimated for Davidson subspace
         15.94 MB estimated for FFT workspace
------------------
     ethr =  1.00E-02, avg # of iterations =  2.1
     avg # of Hpsi vectors =  12.1, max residual =  7.14E-02 Ha
     total cpu time spent up to now is        4.3 secs
     total energy              =     -33.0818127705 Ry
     estimated scf accuracy    <   1.8426254650e+00 Ry

     iteration #   5     ecut=    80.00 Ry     beta= 0.10
     Davidson diagonalization with overlap

---- Real-time Memory Report at c_bands before calling an iterative solver
           192 MiB given to the printing process from OS
         14690 MiB available memory on the node where the printing process lives
          1.33 MB estimated for rho,v,vnew
          1.64 MB estimated for rho*nmix
          1.84 MB estimated for psi
          0.83 MB estimated for Davidson subspace
         15.94 MB estimated for FFT workspace
------------------
     ethr =  1.00E-02, avg # of iterations =  1.0
     avg # of Hpsi vectors =   8.0, max residual =  2.83E-02 Ha
     total cpu time spent up to now is        4.7 secs
     total energy              =     -31.0532270594 Ry
     estimated scf accuracy    <   2.7368929081e+00 Ry

     iteration #   6     ecut=    80.00 Ry     beta= 0.10
     Davidson diagonalization with overlap

---- Real-time Memory Report at c_bands before calling an iterative solver
           193 MiB given to the printing process from OS
         14690 MiB available memory on the node where the printing process lives
          1.33 MB estimated for rho,v,vnew
          2.05 MB estimated for rho*nmix
          1.84 MB estimated for psi
          0.83 MB estimated for Davidson subspace
         15.94 MB estimated for FFT workspace
------------------
     ethr =  1.00E-02, avg # of iterations =  2.0
     avg # of Hpsi vectors =  12.0, max residual =  7.06E-02 Ha
     total cpu time spent up to now is        5.2 secs
     total energy              =     -31.1535356310 Ry
     estimated scf accuracy    <   3.9713890873e-02 Ry

     iteration #   7     ecut=    80.00 Ry     beta= 0.10
     Davidson diagonalization with overlap

---- Real-time Memory Report at c_bands before calling an iterative solver
           194 MiB given to the printing process from OS
         14690 MiB available memory on the node where the printing process lives
          1.33 MB estimated for rho,v,vnew
          2.46 MB estimated for rho*nmix
          1.84 MB estimated for psi
          0.83 MB estimated for Davidson subspace
         15.94 MB estimated for FFT workspace
------------------
     ethr =  4.96E-04, avg # of iterations =  2.2
     avg # of Hpsi vectors =   9.4, max residual =  2.48E-02 Ha
     total cpu time spent up to now is        5.7 secs
     total energy              =     -31.1640758332 Ry
     estimated scf accuracy    <   1.5562425237e-02 Ry

     iteration #   8     ecut=    80.00 Ry     beta= 0.10
     Davidson diagonalization with overlap

---- Real-time Memory Report at c_bands before calling an iterative solver
           195 MiB given to the printing process from OS
         14692 MiB available memory on the node where the printing process lives
          1.33 MB estimated for rho,v,vnew
          2.87 MB estimated for rho*nmix
          1.84 MB estimated for psi
          0.83 MB estimated for Davidson subspace
         15.94 MB estimated for FFT workspace
------------------
     ethr =  1.95E-04, avg # of iterations =  1.0
     avg # of Hpsi vectors =   8.0, max residual =  8.13E-03 Ha
     total cpu time spent up to now is        6.1 secs
     total energy              =     -31.1989339610 Ry
     estimated scf accuracy    <   2.3193168847e-02 Ry

     iteration #   9     ecut=    80.00 Ry     beta= 0.10
     Davidson diagonalization with overlap

---- Real-time Memory Report at c_bands before calling an iterative solver
           195 MiB given to the printing process from OS
         14692 MiB available memory on the node where the printing process lives
          1.33 MB estimated for rho,v,vnew
          3.28 MB estimated for rho*nmix
          1.84 MB estimated for psi
          0.83 MB estimated for Davidson subspace
         15.94 MB estimated for FFT workspace
------------------
     ethr =  1.95E-04, avg # of iterations =  1.1
     avg # of Hpsi vectors =   8.2, max residual =  9.28E-03 Ha
     total cpu time spent up to now is        6.5 secs
     total energy              =     -31.1415077535 Ry
     estimated scf accuracy    <   7.0781164402e-02 Ry

     iteration #  10     ecut=    80.00 Ry     beta= 0.10
     Davidson diagonalization with overlap

---- Real-time Memory Report at c_bands before calling an iterative solver
           195 MiB given to the printing process from OS
         14692 MiB available memory on the node where the printing process lives
          1.33 MB estimated for rho,v,vnew
          3.69 MB estimated for rho*nmix
          1.84 MB estimated for psi
          0.83 MB estimated for Davidson subspace
         15.94 MB estimated for FFT workspace
------------------
     ethr =  1.95E-04, avg # of iterations =  2.1
     avg # of Hpsi vectors =  12.1, max residual =  9.33E-03 Ha
     total cpu time spent up to now is        7.1 secs
     total energy              =     -31.1480013995 Ry
     estimated scf accuracy    <   1.2342276856e-03 Ry

     iteration #  11     ecut=    80.00 Ry     beta= 0.10
     Davidson diagonalization with overlap

---- Real-time Memory Report at c_bands before calling an iterative solver
           195 MiB given to the printing process from OS
         14729 MiB available memory on the node where the printing process lives
          1.33 MB estimated for rho,v,vnew
          3.69 MB estimated for rho*nmix
          1.84 MB estimated for psi
          0.83 MB estimated for Davidson subspace
         15.94 MB estimated for FFT workspace
------------------
     ethr =  1.54E-05, avg # of iterations =  2.1
     avg # of Hpsi vectors =   9.9, max residual =  3.89E-03 Ha
     total cpu time spent up to now is        7.5 secs
     total energy              =     -31.1482434604 Ry
     estimated scf accuracy    <   2.0070835128e-04 Ry

     iteration #  12     ecut=    80.00 Ry     beta= 0.10
     Davidson diagonalization with overlap

---- Real-time Memory Report at c_bands before calling an iterative solver
           195 MiB given to the printing process from OS
         14729 MiB available memory on the node where the printing process lives
          1.33 MB estimated for rho,v,vnew
          3.69 MB estimated for rho*nmix
          1.84 MB estimated for psi
          0.83 MB estimated for Davidson subspace
         15.94 MB estimated for FFT workspace
------------------
     ethr =  2.51E-06, avg # of iterations =  1.1
     avg # of Hpsi vectors =   8.1, max residual =  8.68E-04 Ha
     total cpu time spent up to now is        7.9 secs
     total energy              =     -31.1481830069 Ry
     estimated scf accuracy    <   2.0983657119e-04 Ry

     iteration #  13     ecut=    80.00 Ry     beta= 0.10
     Davidson diagonalization with overlap

---- Real-time Memory Report at c_bands before calling an iterative solver
           196 MiB given to the printing process from OS
         14754 MiB available memory on the node where the printing process lives
          1.33 MB estimated for rho,v,vnew
          3.69 MB estimated for rho*nmix
          1.84 MB estimated for psi
          0.83 MB estimated for Davidson subspace
         15.94 MB estimated for FFT workspace
------------------
     ethr =  2.51E-06, avg # of iterations =  1.0
     avg # of Hpsi vectors =   8.0, max residual =  8.98E-04 Ha
     total cpu time spent up to now is        8.3 secs
     total energy              =     -31.1481844798 Ry
     estimated scf accuracy    <   3.2572456862e-05 Ry

     iteration #  14     ecut=    80.00 Ry     beta= 0.10
     Davidson diagonalization with overlap

---- Real-time Memory Report at c_bands before calling an iterative solver
           196 MiB given to the printing process from OS
         14754 MiB available memory on the node where the printing process lives
          1.33 MB estimated for rho,v,vnew
          3.69 MB estimated for rho*nmix
          1.84 MB estimated for psi
          0.83 MB estimated for Davidson subspace
         15.94 MB estimated for FFT workspace
------------------
     ethr =  4.07E-07, avg # of iterations =  1.4
     avg # of Hpsi vectors =   8.4, max residual =  4.61E-04 Ha
     total cpu time spent up to now is        8.8 secs
     total energy              =     -31.1481845202 Ry
     estimated scf accuracy    <   6.0491083863e-06 Ry

     iteration #  15     ecut=    80.00 Ry     beta= 0.10
     Davidson diagonalization with overlap

---- Real-time Memory Report at c_bands before calling an iterative solver
           196 MiB given to the printing process from OS
         14754 MiB available memory on the node where the printing process lives
          1.33 MB estimated for rho,v,vnew
          3.69 MB estimated for rho*nmix
          1.84 MB estimated for psi
          0.83 MB estimated for Davidson subspace
         15.94 MB estimated for FFT workspace
------------------
     ethr =  7.56E-08, avg # of iterations =  3.4
     avg # of Hpsi vectors =  11.6, max residual =  1.30E-04 Ha
     total cpu time spent up to now is        9.3 secs
     total energy              =     -31.1504432007 Ry
     estimated scf accuracy    <   2.4939562243e-05 Ry

     iteration #  16     ecut=    80.00 Ry     beta= 0.10
     Davidson diagonalization with overlap

---- Real-time Memory Report at c_bands before calling an iterative solver
           196 MiB given to the printing process from OS
         14754 MiB available memory on the node where the printing process lives
          1.33 MB estimated for rho,v,vnew
          3.69 MB estimated for rho*nmix
          1.84 MB estimated for psi
          0.83 MB estimated for Davidson subspace
         15.94 MB estimated for FFT workspace
------------------
     ethr =  7.56E-08, avg # of iterations =  1.0
     avg # of Hpsi vectors =   8.0, max residual =  8.28E-05 Ha
     total cpu time spent up to now is        9.7 secs
     total energy              =     -31.1504441549 Ry
     estimated scf accuracy    <   2.1150247295e-05 Ry

     iteration #  17     ecut=    80.00 Ry     beta= 0.10
     Davidson diagonalization with overlap

---- Real-time Memory Report at c_bands before calling an iterative solver
           196 MiB given to the printing process from OS
         14754 MiB available memory on the node where the printing process lives
          1.33 MB estimated for rho,v,vnew
          3.69 MB estimated for rho*nmix
          1.84 MB estimated for psi
          0.83 MB estimated for Davidson subspace
         15.94 MB estimated for FFT workspace
------------------
     ethr =  7.56E-08, avg # of iterations =  1.0
     avg # of Hpsi vectors =   8.0, max residual =  6.09E-05 Ha
     total cpu time spent up to now is       10.1 secs
     total energy              =     -31.1504347712 Ry
     estimated scf accuracy    <   2.3358045844e-05 Ry

     iteration #  18     ecut=    80.00 Ry     beta= 0.10
     Davidson diagonalization with overlap

---- Real-time Memory Report at c_bands before calling an iterative solver
           196 MiB given to the printing process from OS
         14754 MiB available memory on the node where the printing process lives
          1.33 MB estimated for rho,v,vnew
          3.69 MB estimated for rho*nmix
          1.84 MB estimated for psi
          0.83 MB estimated for Davidson subspace
         15.94 MB estimated for FFT workspace
------------------
     ethr =  7.56E-08, avg # of iterations =  3.0
     avg # of Hpsi vectors =  11.4, max residual =  1.39E-04 Ha
     total cpu time spent up to now is       10.7 secs
     total energy              =     -31.1504379663 Ry
     estimated scf accuracy    <   2.8879272890e-06 Ry

     iteration #  19     ecut=    80.00 Ry     beta= 0.10
     Davidson diagonalization with overlap

---- Real-time Memory Report at c_bands before calling an iterative solver
           196 MiB given to the printing process from OS
         14750 MiB available memory on the node where the printing process lives
          1.33 MB estimated for rho,v,vnew
          3.69 MB estimated for rho*nmix
          1.84 MB estimated for psi
          0.83 MB estimated for Davidson subspace
         15.94 MB estimated for FFT workspace
------------------
     ethr =  3.61E-08, avg # of iterations =  1.0
     avg # of Hpsi vectors =   8.0, max residual =  6.92E-05 Ha
     total cpu time spent up to now is       11.1 secs
     total energy              =     -31.1504372112 Ry
     estimated scf accuracy    <   3.4407732098e-06 Ry

     iteration #  20     ecut=    80.00 Ry     beta= 0.10
     Davidson diagonalization with overlap

---- Real-time Memory Report at c_bands before calling an iterative solver
           196 MiB given to the printing process from OS
         14750 MiB available memory on the node where the printing process lives
          1.33 MB estimated for rho,v,vnew
          3.69 MB estimated for rho*nmix
          1.84 MB estimated for psi
          0.83 MB estimated for Davidson subspace
         15.94 MB estimated for FFT workspace
------------------
     ethr =  3.61E-08, avg # of iterations =  2.5
     avg # of Hpsi vectors =  10.7, max residual =  9.68E-05 Ha
     total cpu time spent up to now is       11.6 secs
     total energy              =     -31.1504390321 Ry
     estimated scf accuracy    <   3.8520864517e-06 Ry

     iteration #  21     ecut=    80.00 Ry     beta= 0.10
     Davidson diagonalization with overlap

---- Real-time Memory Report at c_bands before calling an iterative solver
           196 MiB given to the printing process from OS
         14750 MiB available memory on the node where the printing process lives
          1.33 MB estimated for rho,v,vnew
          3.69 MB estimated for rho*nmix
          1.84 MB estimated for psi
          0.83 MB estimated for Davidson subspace
         15.94 MB estimated for FFT workspace
------------------
     ethr =  3.61E-08, avg # of iterations =  3.2
     avg # of Hpsi vectors =  12.2, max residual =  8.95E-05 Ha
     total cpu time spent up to now is       12.3 secs
     total energy              =     -31.1504379353 Ry
     estimated scf accuracy    <   1.4814129915e-05 Ry

     iteration #  22     ecut=    80.00 Ry     beta= 0.10
     Davidson diagonalization with overlap

---- Real-time Memory Report at c_bands before calling an iterative solver
           196 MiB given to the printing process from OS
         14750 MiB available memory on the node where the printing process lives
          1.33 MB estimated for rho,v,vnew
          3.69 MB estimated for rho*nmix
          1.84 MB estimated for psi
          0.83 MB estimated for Davidson subspace
         15.94 MB estimated for FFT workspace
------------------
     ethr =  3.61E-08, avg # of iterations =  2.0
     avg # of Hpsi vectors =   9.6, max residual =  1.04E-04 Ha
     total cpu time spent up to now is       12.8 secs
     total energy              =     -31.1504365890 Ry
     estimated scf accuracy    <   4.3503921470e-06 Ry

     iteration #  23     ecut=    80.00 Ry     beta= 0.10
     Davidson diagonalization with overlap

---- Real-time Memory Report at c_bands before calling an iterative solver
           196 MiB given to the printing process from OS
         14750 MiB available memory on the node where the printing process lives
          1.33 MB estimated for rho,v,vnew
          3.69 MB estimated for rho*nmix
          1.84 MB estimated for psi
          0.83 MB estimated for Davidson subspace
         15.94 MB estimated for FFT workspace
------------------
     ethr =  3.61E-08, avg # of iterations =  2.1
     avg # of Hpsi vectors =  10.0, max residual =  1.10E-04 Ha
     total cpu time spent up to now is       13.3 secs
     total energy              =     -31.1504368564 Ry
     estimated scf accuracy    <   2.1860645836e-08 Ry

     End of self-consistent calculation

          k =   0.0000   0.0000   0.0000 (  3143 PWs)   bands (ev):
     -20.3013  -19.9531   -3.5698    9.0197

     occupation numbers
       1.0000    1.0000    1.0000    1.0000
          k =  -0.1667   0.1667  -0.1667 (  3182 PWs)   bands (ev):
     -20.2802  -19.9679   -3.1856    6.0470

     occupation numbers
       1.0000    1.0000    1.0000    1.0000
          k =  -0.3333   0.3333  -0.3333 (  3173 PWs)   bands (ev):
     -20.2307  -20.0044   -2.0333    2.6889

     occupation numbers
       1.0000    1.0000    1.0000    1.0000
          k =   0.5000  -0.5000   0.5000 (  3178 PWs)   bands (ev):
     -20.1988  -20.0301   -0.4132    0.3017

     occupation numbers
       1.0000    1.0000    1.0000    1.0000
          k =  -0.0000   0.3333  -0.0000 (  3187 PWs)   bands (ev):
     -20.2729  -19.9731   -3.0573    7.0368

     occupation numbers
       1.0000    1.0000    1.0000    1.0000
          k =  -0.1667   0.5000  -0.1667 (  3188 PWs)   bands (ev):
     -20.2312  -20.0042   -2.1593    4.0440

     occupation numbers
       1.0000    1.0000    1.0000    1.0000
          k =   0.6667  -0.3333   0.6667 (  3191 PWs)   bands (ev):
     -20.1867  -20.0403   -0.5303    1.1835

     occupation numbers
       1.0000    1.0000    1.0000    1.0000
          k =   0.5000  -0.1667   0.5000 (  3186 PWs)   bands (ev):
     -20.1995  -20.0296   -1.1426    2.0518

     occupation numbers
       1.0000    1.0000    1.0000    1.0000
          k =   0.3333   0.0000   0.3333 (  3206 PWs)   bands (ev):
     -20.2489  -19.9908   -2.5445    5.0777

     occupation numbers
       1.0000    1.0000    1.0000    1.0000
          k =  -0.0000   0.6667  -0.0000 (  3170 PWs)   bands (ev):
     -20.2000  -20.0289   -1.5151    4.4263

     occupation numbers
       1.0000    1.0000    1.0000    1.0000
          k =   0.8333  -0.1667   0.8333 (  3189 PWs)   bands (ev):
     -20.1539  -20.0690   -0.1144    2.6347

     occupation numbers
       1.0000    1.0000    1.0000    1.0000
          k =   0.6667  -0.0000   0.6667 (  3198 PWs)   bands (ev):
     -20.1537  -20.0693    0.4460    2.0638

     occupation numbers
       1.0000    1.0000    1.0000    1.0000
          k =   0.0000  -1.0000   0.0000 (  3250 PWs)   bands (ev):
     -20.1105  -20.1105    1.0407    1.0407

     occupation numbers
       1.0000    1.0000    1.0000    1.0000
          k =   0.6667  -0.3333   1.0000 (  3201 PWs)   bands (ev):
     -20.1873  -20.0398   -1.0082    3.4817

     occupation numbers
       1.0000    1.0000    1.0000    1.0000
          k =   0.5000  -0.1667   0.8333 (  3182 PWs)   bands (ev):
     -20.1536  -20.0693    0.5857    1.3220

     occupation numbers
       1.0000    1.0000    1.0000    1.0000
          k =  -0.3333  -1.0000   0.0000 (  3182 PWs)   bands (ev):
     -20.1104  -20.1104    1.4664    1.4664

     occupation numbers
       1.0000    1.0000    1.0000    1.0000

     highest occupied level (ev):     9.0197

!    total energy              =     -31.1504368564 Ry
     estimated scf accuracy    <       0.0000000219 Ry

     The total energy is the sum of the following terms:
     one-electron contribution =     -16.5483859745 Ry
     hartree contribution      =      11.4465850765 Ry
     xc contribution           =      -9.1156755052 Ry
     ewald contribution        =     -16.9329604531 Ry

     convergence has been achieved in  23 iterations

     peak resident memory/rank = 216.67 MiB
     aggregate rank high-water marks = 431.82 MiB

     init_run     :      0.94s CPU      0.96s WALL (       1 calls)
     electrons    :     12.34s CPU     12.36s WALL (       1 calls)

     Called by init_run:
     wfcinit      :      0.80s CPU      0.80s WALL (      16 calls)
     potinit      :      0.05s CPU      0.05s WALL (       1 calls)
     hinit0       :      0.05s CPU      0.06s WALL (       1 calls)
     sym_rho:init :      0.10s CPU      0.10s WALL (       1 calls)

     Called by electrons:
     c_bands      :      9.38s CPU      9.39s WALL (      23 calls)
     sum_band     :      2.50s CPU      2.50s WALL (      23 calls)
     v_of_rho     :      0.13s CPU      0.14s WALL (      23 calls)
     v_h          :      0.06s CPU      0.06s WALL (      23 calls)
     v_xc         :      0.06s CPU      0.07s WALL (      23 calls)
     mix_rho      :      0.15s CPU      0.15s WALL (      23 calls)

     Called by sum_band:
     sum_band:wfc    :      1.36s CPU      1.36s WALL (     368 calls)
     sum_band:rho    :      0.51s CPU      0.51s WALL (     368 calls)
     sum_band:collect:      0.00s CPU      0.00s WALL (       0 calls)
     sum_band:sym    :      0.63s CPU      0.63s WALL (      23 calls)

     Called by c_bands:
     init_us_2    :      1.20s CPU      1.21s WALL (     368 calls)
     cegterg      :      7.37s CPU      7.37s WALL (     368 calls)
     cdiaghg      :      0.34s CPU      0.34s WALL (    1059 calls)
     cegterg:over :      0.09s CPU      0.09s WALL (     352 calls)
     cegterg:upda :      0.10s CPU      0.10s WALL (    1059 calls)
     cegterg:last :      0.12s CPU      0.12s WALL (      18 calls)
     g_psi        :      0.07s CPU      0.07s WALL (     707 calls)

     Called by h_psi:
     h_psi        :      6.46s CPU      6.46s WALL (    1109 calls)
     h_psi:calbec :      0.27s CPU      0.27s WALL (    1109 calls)
     vloc_psi     :      6.00s CPU      6.00s WALL (    1109 calls)
     add_vuspsi   :      0.15s CPU      0.15s WALL (    1109 calls)
     fftw         :      6.48s CPU      6.49s WALL (    2657 calls)
     calbec       :      0.27s CPU      0.27s WALL (    1109 calls)

     PWSCF        :     13.27s CPU     13.31s WALL

   JOB DONE.
