
     Program PWSCF v.7.5 starts on 31Jul2026 at 18: 4: 9 

     This program is part of the open-source Quantum ESPRESSO suite
     for quantum simulation of materials; please cite
         "P. Giannozzi et al., J. Phys.:Condens. Matter 21 395502 (2009);
         "P. Giannozzi et al., J. Phys.:Condens. Matter 29 465901 (2017);
         "P. Giannozzi et al., J. Chem. Phys. 152 154105 (2020);
          URL http://www.quantum-espresso.org", 
     in publications or presentations arising from this work. More details at
     http://www.quantum-espresso.org/quote

     Parallel version (MPI), running on     2 processors

     MPI processes distributed on     1 nodes
     14846 MiB available memory on the printing compute node when the environment starts

     Reading input from /mnt/c/Users/sjhon/QE_porting/benchmarks/Si.sym.scf.in

     Current dimensions of program PWSCF are:
     Max number of different atomic species (ntypx) = 10
     Max number of k-points (npk) =  40000
     Max angular momentum in pseudopotentials (lmaxx) =  4

     R & G space division:  proc/nbgrp/npool/nimage =       2
     Subspace diagonalization in iterative solution of the eigenvalue problem:
     a serial algorithm will be used


     Parallelization info
     --------------------
     sticks:   dense  smooth     PW     G-vecs:    dense   smooth      PW
     Min         573     573    168                12802    12802    2007
     Max         574     574    169                12803    12803    2008
     Sum        1147    1147    337                25605    25605    4015

     Using Slab Decomposition



     bravais-lattice index     =            2
     lattice parameter (alat)  =      10.1800  a.u.
     unit-cell volume          =     263.7445 (a.u.)^3
     number of atoms/cell      =            2
     number of atomic types    =            1
     number of electrons       =         8.00
     number of Kohn-Sham states=            4
     kinetic-energy cutoff     =      80.0000  Ry
     charge density cutoff     =     320.0000  Ry
     scf convergence threshold =      1.0E-06
     mixing beta               =       0.1000
     number of iterations used =            8  plain     mixing
     Exchange-correlation= PZ
                           (   1   1   0   0   0   0   0)

     celldm(1)=  10.180000  celldm(2)=   0.000000  celldm(3)=   0.000000
     celldm(4)=   0.000000  celldm(5)=   0.000000  celldm(6)=   0.000000

     crystal axes: (cart. coord. in units of alat)
               a(1) = (  -0.500000   0.000000   0.500000 )  
               a(2) = (   0.000000   0.500000   0.500000 )  
               a(3) = (  -0.500000   0.500000   0.000000 )  

     reciprocal axes: (cart. coord. in units 2 pi/alat)
               b(1) = ( -1.000000 -1.000000  1.000000 )  
               b(2) = (  1.000000  1.000000  1.000000 )  
               b(3) = ( -1.000000  1.000000 -1.000000 )  


     PseudoPot. # 1 for Si read from file:
     /home/sjhong6230/QE_porting_test/Si_sym_PZ/pseudo/Si.upf
     MD5 check sum: f98dec029984cdc523c2feab7a820a0e
     Pseudo is Norm-conserving, Zval =  4.0
     Generated using ONCVPSP code by D. R. Hamann
     Using radial grid of 1506 points,  6 beta functions with: 
                l(1) =   0
                l(2) =   0
                l(3) =   1
                l(4) =   1
                l(5) =   2
                l(6) =   2

     atomic species   valence    mass     pseudopotential
     Si                4.00    28.08500     Si( 1.00)

     48 Sym. Ops., with inversion, found (24 have fractional translation)


                                    s                        frac. trans.

      isym =  1     identity                                     

 cryst.   s( 1) = (     1          0          0      )
                  (     0          1          0      )
                  (     0          0          1      )

 cart.    s( 1) = (  1.0000000  0.0000000  0.0000000 )
                  (  0.0000000  1.0000000  0.0000000 )
                  (  0.0000000  0.0000000  1.0000000 )


      isym =  2     180 deg rotation - cart. axis [0,0,1]        

 cryst.   s( 2) = (     0          1         -1      )
                  (     1          0         -1      )
                  (     0          0         -1      )

 cart.    s( 2) = ( -1.0000000  0.0000000  0.0000000 )
                  (  0.0000000 -1.0000000  0.0000000 )
                  (  0.0000000  0.0000000  1.0000000 )


      isym =  3     180 deg rotation - cart. axis [0,1,0]        

 cryst.   s( 3) = (    -1          0          0      )
                  (    -1          0          1      )
                  (    -1          1          0      )

 cart.    s( 3) = ( -1.0000000  0.0000000  0.0000000 )
                  (  0.0000000  1.0000000  0.0000000 )
                  (  0.0000000  0.0000000 -1.0000000 )


      isym =  4     180 deg rotation - cart. axis [1,0,0]        

 cryst.   s( 4) = (     0         -1          1      )
                  (     0         -1          0      )
                  (     1         -1          0      )

 cart.    s( 4) = (  1.0000000  0.0000000  0.0000000 )
                  (  0.0000000 -1.0000000  0.0000000 )
                  (  0.0000000  0.0000000 -1.0000000 )


      isym =  5     180 deg rotation - cart. axis [1,1,0]        

 cryst.   s( 5) = (     0         -1          0      )    f =( -0.2500000 )
                  (    -1          0          0      )       ( -0.2500000 )
                  (     0          0         -1      )       ( -0.2500000 )

 cart.    s( 5) = (  0.0000000  1.0000000  0.0000000 )    f =(  0.2500000 )
                  (  1.0000000  0.0000000  0.0000000 )       ( -0.2500000 )
                  (  0.0000000  0.0000000 -1.0000000 )       ( -0.2500000 )


      isym =  6     180 deg rotation - cart. axis [1,-1,0]       

 cryst.   s( 6) = (    -1          0          1      )    f =( -0.2500000 )
                  (     0         -1          1      )       ( -0.2500000 )
                  (     0          0          1      )       ( -0.2500000 )

 cart.    s( 6) = (  0.0000000 -1.0000000  0.0000000 )    f =(  0.2500000 )
                  ( -1.0000000  0.0000000  0.0000000 )       ( -0.2500000 )
                  (  0.0000000  0.0000000 -1.0000000 )       ( -0.2500000 )


      isym =  7      90 deg rotation - cart. axis [0,0,-1]       

 cryst.   s( 7) = (     0          1          0      )    f =( -0.2500000 )
                  (     0          1         -1      )       ( -0.2500000 )
                  (    -1          1          0      )       ( -0.2500000 )

 cart.    s( 7) = (  0.0000000  1.0000000  0.0000000 )    f =(  0.2500000 )
                  ( -1.0000000  0.0000000  0.0000000 )       ( -0.2500000 )
                  (  0.0000000  0.0000000  1.0000000 )       ( -0.2500000 )


      isym =  8      90 deg rotation - cart. axis [0,0,1]        

 cryst.   s( 8) = (     1          0         -1      )    f =( -0.2500000 )
                  (     1          0          0      )       ( -0.2500000 )
                  (     1         -1          0      )       ( -0.2500000 )

 cart.    s( 8) = (  0.0000000 -1.0000000  0.0000000 )    f =(  0.2500000 )
                  (  1.0000000  0.0000000  0.0000000 )       ( -0.2500000 )
                  (  0.0000000  0.0000000  1.0000000 )       ( -0.2500000 )


      isym =  9     180 deg rotation - cart. axis [1,0,1]        

 cryst.   s( 9) = (    -1          0          0      )    f =( -0.2500000 )
                  (     0          0         -1      )       ( -0.2500000 )
                  (     0         -1          0      )       ( -0.2500000 )

 cart.    s( 9) = (  0.0000000  0.0000000  1.0000000 )    f =(  0.2500000 )
                  (  0.0000000 -1.0000000  0.0000000 )       ( -0.2500000 )
                  (  1.0000000  0.0000000  0.0000000 )       ( -0.2500000 )


      isym = 10     180 deg rotation - cart. axis [-1,0,1]       

 cryst.   s(10) = (     1          0          0      )    f =( -0.2500000 )
                  (     1         -1          0      )       ( -0.2500000 )
                  (     1          0         -1      )       ( -0.2500000 )

 cart.    s(10) = (  0.0000000  0.0000000 -1.0000000 )    f =(  0.2500000 )
                  (  0.0000000 -1.0000000  0.0000000 )       ( -0.2500000 )
                  ( -1.0000000  0.0000000  0.0000000 )       ( -0.2500000 )


      isym = 11      90 deg rotation - cart. axis [0,1,0]        

 cryst.   s(11) = (     0          1         -1      )    f =( -0.2500000 )
                  (    -1          1          0      )       ( -0.2500000 )
                  (     0          1          0      )       ( -0.2500000 )

 cart.    s(11) = (  0.0000000  0.0000000  1.0000000 )    f =(  0.2500000 )
                  (  0.0000000  1.0000000  0.0000000 )       ( -0.2500000 )
                  ( -1.0000000  0.0000000  0.0000000 )       ( -0.2500000 )


      isym = 12      90 deg rotation - cart. axis [0,-1,0]       

 cryst.   s(12) = (     0         -1          1      )    f =( -0.2500000 )
                  (     0          0          1      )       ( -0.2500000 )
                  (    -1          0          1      )       ( -0.2500000 )

 cart.    s(12) = (  0.0000000  0.0000000 -1.0000000 )    f =(  0.2500000 )
                  (  0.0000000  1.0000000  0.0000000 )       ( -0.2500000 )
                  (  1.0000000  0.0000000  0.0000000 )       ( -0.2500000 )


      isym = 13     180 deg rotation - cart. axis [0,1,1]        

 cryst.   s(13) = (    -1          1          0      )    f =( -0.2500000 )
                  (     0          1          0      )       ( -0.2500000 )
                  (     0          1         -1      )       ( -0.2500000 )

 cart.    s(13) = ( -1.0000000  0.0000000  0.0000000 )    f =(  0.2500000 )
                  (  0.0000000  0.0000000  1.0000000 )       ( -0.2500000 )
                  (  0.0000000  1.0000000  0.0000000 )       ( -0.2500000 )


      isym = 14     180 deg rotation - cart. axis [0,1,-1]       

 cryst.   s(14) = (     0          0         -1      )    f =( -0.2500000 )
                  (     0         -1          0      )       ( -0.2500000 )
                  (    -1          0          0      )       ( -0.2500000 )

 cart.    s(14) = ( -1.0000000  0.0000000  0.0000000 )    f =(  0.2500000 )
                  (  0.0000000  0.0000000 -1.0000000 )       ( -0.2500000 )
                  (  0.0000000 -1.0000000  0.0000000 )       ( -0.2500000 )


      isym = 15      90 deg rotation - cart. axis [-1,0,0]       

 cryst.   s(15) = (     0          0          1      )    f =( -0.2500000 )
                  (    -1          0          1      )       ( -0.2500000 )
                  (     0         -1          1      )       ( -0.2500000 )

 cart.    s(15) = (  1.0000000  0.0000000  0.0000000 )    f =(  0.2500000 )
                  (  0.0000000  0.0000000  1.0000000 )       ( -0.2500000 )
                  (  0.0000000 -1.0000000  0.0000000 )       ( -0.2500000 )


      isym = 16      90 deg rotation - cart. axis [1,0,0]        

 cryst.   s(16) = (     1         -1          0      )    f =( -0.2500000 )
                  (     1          0         -1      )       ( -0.2500000 )
                  (     1          0          0      )       ( -0.2500000 )

 cart.    s(16) = (  1.0000000  0.0000000  0.0000000 )    f =(  0.2500000 )
                  (  0.0000000  0.0000000 -1.0000000 )       ( -0.2500000 )
                  (  0.0000000  1.0000000  0.0000000 )       ( -0.2500000 )


      isym = 17     120 deg rotation - cart. axis [-1,-1,-1]     

 cryst.   s(17) = (    -1          0          1      )
                  (    -1          1          0      )
                  (    -1          0          0      )

 cart.    s(17) = (  0.0000000  1.0000000  0.0000000 )
                  (  0.0000000  0.0000000  1.0000000 )
                  (  1.0000000  0.0000000  0.0000000 )


      isym = 18     120 deg rotation - cart. axis [-1,1,1]       

 cryst.   s(18) = (     0          1          0      )
                  (     0          0          1      )
                  (     1          0          0      )

 cart.    s(18) = (  0.0000000 -1.0000000  0.0000000 )
                  (  0.0000000  0.0000000  1.0000000 )
                  ( -1.0000000  0.0000000  0.0000000 )


      isym = 19     120 deg rotation - cart. axis [1,1,-1]       

 cryst.   s(19) = (     1          0         -1      )
                  (     0          0         -1      )
                  (     0          1         -1      )

 cart.    s(19) = (  0.0000000  1.0000000  0.0000000 )
                  (  0.0000000  0.0000000 -1.0000000 )
                  ( -1.0000000  0.0000000  0.0000000 )


      isym = 20     120 deg rotation - cart. axis [1,-1,1]       

 cryst.   s(20) = (     0         -1          0      )
                  (     1         -1          0      )
                  (     0         -1          1      )

 cart.    s(20) = (  0.0000000 -1.0000000  0.0000000 )
                  (  0.0000000  0.0000000 -1.0000000 )
                  (  1.0000000  0.0000000  0.0000000 )


      isym = 21     120 deg rotation - cart. axis [1,1,1]        

 cryst.   s(21) = (     0          0         -1      )
                  (     0          1         -1      )
                  (     1          0         -1      )

 cart.    s(21) = (  0.0000000  0.0000000  1.0000000 )
                  (  1.0000000  0.0000000  0.0000000 )
                  (  0.0000000  1.0000000  0.0000000 )


      isym = 22     120 deg rotation - cart. axis [-1,1,-1]      

 cryst.   s(22) = (    -1          1          0      )
                  (    -1          0          0      )
                  (    -1          0          1      )

 cart.    s(22) = (  0.0000000  0.0000000  1.0000000 )
                  ( -1.0000000  0.0000000  0.0000000 )
                  (  0.0000000 -1.0000000  0.0000000 )


      isym = 23     120 deg rotation - cart. axis [1,-1,-1]      

 cryst.   s(23) = (     0          0          1      )
                  (     1          0          0      )
                  (     0          1          0      )

 cart.    s(23) = (  0.0000000  0.0000000 -1.0000000 )
                  ( -1.0000000  0.0000000  0.0000000 )
                  (  0.0000000  1.0000000  0.0000000 )


      isym = 24     120 deg rotation - cart. axis [-1,-1,1]      

 cryst.   s(24) = (     1         -1          0      )
                  (     0         -1          1      )
                  (     0         -1          0      )

 cart.    s(24) = (  0.0000000  0.0000000 -1.0000000 )
                  (  1.0000000  0.0000000  0.0000000 )
                  (  0.0000000 -1.0000000  0.0000000 )


      isym = 25     inversion                                    

 cryst.   s(25) = (    -1          0          0      )    f =( -0.2500000 )
                  (     0         -1          0      )       ( -0.2500000 )
                  (     0          0         -1      )       ( -0.2500000 )

 cart.    s(25) = ( -1.0000000  0.0000000  0.0000000 )    f =(  0.2500000 )
                  (  0.0000000 -1.0000000  0.0000000 )       ( -0.2500000 )
                  (  0.0000000  0.0000000 -1.0000000 )       ( -0.2500000 )


      isym = 26     inv. 180 deg rotation - cart. axis [0,0,1]   

 cryst.   s(26) = (     0         -1          1      )    f =( -0.2500000 )
                  (    -1          0          1      )       ( -0.2500000 )
                  (     0          0          1      )       ( -0.2500000 )

 cart.    s(26) = (  1.0000000  0.0000000  0.0000000 )    f =(  0.2500000 )
                  (  0.0000000  1.0000000  0.0000000 )       ( -0.2500000 )
                  (  0.0000000  0.0000000 -1.0000000 )       ( -0.2500000 )


      isym = 27     inv. 180 deg rotation - cart. axis [0,1,0]   

 cryst.   s(27) = (     1          0          0      )    f =( -0.2500000 )
                  (     1          0         -1      )       ( -0.2500000 )
                  (     1         -1          0      )       ( -0.2500000 )

 cart.    s(27) = (  1.0000000  0.0000000  0.0000000 )    f =(  0.2500000 )
                  (  0.0000000 -1.0000000  0.0000000 )       ( -0.2500000 )
                  (  0.0000000  0.0000000  1.0000000 )       ( -0.2500000 )


      isym = 28     inv. 180 deg rotation - cart. axis [1,0,0]   

 cryst.   s(28) = (     0          1         -1      )    f =( -0.2500000 )
                  (     0          1          0      )       ( -0.2500000 )
                  (    -1          1          0      )       ( -0.2500000 )

 cart.    s(28) = ( -1.0000000  0.0000000  0.0000000 )    f =(  0.2500000 )
                  (  0.0000000  1.0000000  0.0000000 )       ( -0.2500000 )
                  (  0.0000000  0.0000000  1.0000000 )       ( -0.2500000 )


      isym = 29     inv. 180 deg rotation - cart. axis [1,1,0]   

 cryst.   s(29) = (     0          1          0      )
                  (     1          0          0      )
                  (     0          0          1      )

 cart.    s(29) = (  0.0000000 -1.0000000  0.0000000 )
                  ( -1.0000000  0.0000000  0.0000000 )
                  (  0.0000000  0.0000000  1.0000000 )


      isym = 30     inv. 180 deg rotation - cart. axis [1,-1,0]  

 cryst.   s(30) = (     1          0         -1      )
                  (     0          1         -1      )
                  (     0          0         -1      )

 cart.    s(30) = (  0.0000000  1.0000000  0.0000000 )
                  (  1.0000000  0.0000000  0.0000000 )
                  (  0.0000000  0.0000000  1.0000000 )


      isym = 31     inv.  90 deg rotation - cart. axis [0,0,-1]  

 cryst.   s(31) = (     0         -1          0      )
                  (     0         -1          1      )
                  (     1         -1          0      )

 cart.    s(31) = (  0.0000000 -1.0000000  0.0000000 )
                  (  1.0000000  0.0000000  0.0000000 )
                  (  0.0000000  0.0000000 -1.0000000 )


      isym = 32     inv.  90 deg rotation - cart. axis [0,0,1]   

 cryst.   s(32) = (    -1          0          1      )
                  (    -1          0          0      )
                  (    -1          1          0      )

 cart.    s(32) = (  0.0000000  1.0000000  0.0000000 )
                  ( -1.0000000  0.0000000  0.0000000 )
                  (  0.0000000  0.0000000 -1.0000000 )


      isym = 33     inv. 180 deg rotation - cart. axis [1,0,1]   

 cryst.   s(33) = (     1          0          0      )
                  (     0          0          1      )
                  (     0          1          0      )

 cart.    s(33) = (  0.0000000  0.0000000 -1.0000000 )
                  (  0.0000000  1.0000000  0.0000000 )
                  ( -1.0000000  0.0000000  0.0000000 )


      isym = 34     inv. 180 deg rotation - cart. axis [-1,0,1]  

 cryst.   s(34) = (    -1          0          0      )
                  (    -1          1          0      )
                  (    -1          0          1      )

 cart.    s(34) = (  0.0000000  0.0000000  1.0000000 )
                  (  0.0000000  1.0000000  0.0000000 )
                  (  1.0000000  0.0000000  0.0000000 )


      isym = 35     inv.  90 deg rotation - cart. axis [0,1,0]   

 cryst.   s(35) = (     0         -1          1      )
                  (     1         -1          0      )
                  (     0         -1          0      )

 cart.    s(35) = (  0.0000000  0.0000000 -1.0000000 )
                  (  0.0000000 -1.0000000  0.0000000 )
                  (  1.0000000  0.0000000  0.0000000 )


      isym = 36     inv.  90 deg rotation - cart. axis [0,-1,0]  

 cryst.   s(36) = (     0          1         -1      )
                  (     0          0         -1      )
                  (     1          0         -1      )

 cart.    s(36) = (  0.0000000  0.0000000  1.0000000 )
                  (  0.0000000 -1.0000000  0.0000000 )
                  ( -1.0000000  0.0000000  0.0000000 )


      isym = 37     inv. 180 deg rotation - cart. axis [0,1,1]   

 cryst.   s(37) = (     1         -1          0      )
                  (     0         -1          0      )
                  (     0         -1          1      )

 cart.    s(37) = (  1.0000000  0.0000000  0.0000000 )
                  (  0.0000000  0.0000000 -1.0000000 )
                  (  0.0000000 -1.0000000  0.0000000 )


      isym = 38     inv. 180 deg rotation - cart. axis [0,1,-1]  

 cryst.   s(38) = (     0          0          1      )
                  (     0          1          0      )
                  (     1          0          0      )

 cart.    s(38) = (  1.0000000  0.0000000  0.0000000 )
                  (  0.0000000  0.0000000  1.0000000 )
                  (  0.0000000  1.0000000  0.0000000 )


      isym = 39     inv.  90 deg rotation - cart. axis [-1,0,0]  

 cryst.   s(39) = (     0          0         -1      )
                  (     1          0         -1      )
                  (     0          1         -1      )

 cart.    s(39) = ( -1.0000000  0.0000000  0.0000000 )
                  (  0.0000000  0.0000000 -1.0000000 )
                  (  0.0000000  1.0000000  0.0000000 )


      isym = 40     inv.  90 deg rotation - cart. axis [1,0,0]   

 cryst.   s(40) = (    -1          1          0      )
                  (    -1          0          1      )
                  (    -1          0          0      )

 cart.    s(40) = ( -1.0000000  0.0000000  0.0000000 )
                  (  0.0000000  0.0000000  1.0000000 )
                  (  0.0000000 -1.0000000  0.0000000 )


      isym = 41     inv. 120 deg rotation - cart. axis [-1,-1,-1]

 cryst.   s(41) = (     1          0         -1      )    f =( -0.2500000 )
                  (     1         -1          0      )       ( -0.2500000 )
                  (     1          0          0      )       ( -0.2500000 )

 cart.    s(41) = (  0.0000000 -1.0000000  0.0000000 )    f =(  0.2500000 )
                  (  0.0000000  0.0000000 -1.0000000 )       ( -0.2500000 )
                  ( -1.0000000  0.0000000  0.0000000 )       ( -0.2500000 )


      isym = 42     inv. 120 deg rotation - cart. axis [-1,1,1]  

 cryst.   s(42) = (     0         -1          0      )    f =( -0.2500000 )
                  (     0          0         -1      )       ( -0.2500000 )
                  (    -1          0          0      )       ( -0.2500000 )

 cart.    s(42) = (  0.0000000  1.0000000  0.0000000 )    f =(  0.2500000 )
                  (  0.0000000  0.0000000 -1.0000000 )       ( -0.2500000 )
                  (  1.0000000  0.0000000  0.0000000 )       ( -0.2500000 )


      isym = 43     inv. 120 deg rotation - cart. axis [1,1,-1]  

 cryst.   s(43) = (    -1          0          1      )    f =( -0.2500000 )
                  (     0          0          1      )       ( -0.2500000 )
                  (     0         -1          1      )       ( -0.2500000 )

 cart.    s(43) = (  0.0000000 -1.0000000  0.0000000 )    f =(  0.2500000 )
                  (  0.0000000  0.0000000  1.0000000 )       ( -0.2500000 )
                  (  1.0000000  0.0000000  0.0000000 )       ( -0.2500000 )


      isym = 44     inv. 120 deg rotation - cart. axis [1,-1,1]  

 cryst.   s(44) = (     0          1          0      )    f =( -0.2500000 )
                  (    -1          1          0      )       ( -0.2500000 )
                  (     0          1         -1      )       ( -0.2500000 )

 cart.    s(44) = (  0.0000000  1.0000000  0.0000000 )    f =(  0.2500000 )
                  (  0.0000000  0.0000000  1.0000000 )       ( -0.2500000 )
                  ( -1.0000000  0.0000000  0.0000000 )       ( -0.2500000 )


      isym = 45     inv. 120 deg rotation - cart. axis [1,1,1]   

 cryst.   s(45) = (     0          0          1      )    f =( -0.2500000 )
                  (     0         -1          1      )       ( -0.2500000 )
                  (    -1          0          1      )       ( -0.2500000 )

 cart.    s(45) = (  0.0000000  0.0000000 -1.0000000 )    f =(  0.2500000 )
                  ( -1.0000000  0.0000000  0.0000000 )       ( -0.2500000 )
                  (  0.0000000 -1.0000000  0.0000000 )       ( -0.2500000 )


      isym = 46     inv. 120 deg rotation - cart. axis [-1,1,-1] 

 cryst.   s(46) = (     1         -1          0      )    f =( -0.2500000 )
                  (     1          0          0      )       ( -0.2500000 )
                  (     1          0         -1      )       ( -0.2500000 )

 cart.    s(46) = (  0.0000000  0.0000000 -1.0000000 )    f =(  0.2500000 )
                  (  1.0000000  0.0000000  0.0000000 )       ( -0.2500000 )
                  (  0.0000000  1.0000000  0.0000000 )       ( -0.2500000 )


      isym = 47     inv. 120 deg rotation - cart. axis [1,-1,-1] 

 cryst.   s(47) = (     0          0         -1      )    f =( -0.2500000 )
                  (    -1          0          0      )       ( -0.2500000 )
                  (     0         -1          0      )       ( -0.2500000 )

 cart.    s(47) = (  0.0000000  0.0000000  1.0000000 )    f =(  0.2500000 )
                  (  1.0000000  0.0000000  0.0000000 )       ( -0.2500000 )
                  (  0.0000000 -1.0000000  0.0000000 )       ( -0.2500000 )


      isym = 48     inv. 120 deg rotation - cart. axis [-1,-1,1] 

 cryst.   s(48) = (    -1          1          0      )    f =( -0.2500000 )
                  (     0          1         -1      )       ( -0.2500000 )
                  (     0          1          0      )       ( -0.2500000 )

 cart.    s(48) = (  0.0000000  0.0000000  1.0000000 )    f =(  0.2500000 )
                  ( -1.0000000  0.0000000  0.0000000 )       ( -0.2500000 )
                  (  0.0000000  1.0000000  0.0000000 )       ( -0.2500000 )


     point group O_h (m-3m) 
     there are 10 classes
     the character table:

       E     8C3   3C2   6C4   6C2'  i     8S6   3s_h  6S4   6s_d 
A_1g   1.00  1.00  1.00  1.00  1.00  1.00  1.00  1.00  1.00  1.00
A_2g   1.00  1.00  1.00 -1.00 -1.00  1.00  1.00  1.00 -1.00 -1.00
E_g    2.00 -1.00  2.00  0.00  0.00  2.00 -1.00  2.00  0.00  0.00
T_1g   3.00  0.00 -1.00  1.00 -1.00  3.00  0.00 -1.00  1.00 -1.00
T_2g   3.00  0.00 -1.00 -1.00  1.00  3.00  0.00 -1.00 -1.00  1.00
A_1u   1.00  1.00  1.00  1.00  1.00 -1.00 -1.00 -1.00 -1.00 -1.00
A_2u   1.00  1.00  1.00 -1.00 -1.00 -1.00 -1.00 -1.00  1.00  1.00
E_u    2.00 -1.00  2.00  0.00  0.00 -2.00  1.00 -2.00  0.00  0.00
T_1u   3.00  0.00 -1.00  1.00 -1.00 -3.00  0.00  1.00 -1.00  1.00
T_2u   3.00  0.00 -1.00 -1.00  1.00 -3.00  0.00  1.00  1.00 -1.00

     the symmetry operations in each class and the name of the first element:

     E        1
          identity                                               
     8C3     17   19   20   18   24   21   22   23
          120 deg rotation - cart. axis [-1,-1,-1]               
     3C2      2    4    3
          180 deg rotation - cart. axis [0,0,1]                  
     6C4      7    8   15   16   12   11
           90 deg rotation - cart. axis [0,0,-1]                 
     6C2'     5    6   14   13   10    9
          180 deg rotation - cart. axis [1,1,0]                  
     i       25
          inversion                                              
     8S6     41   43   44   42   48   45   46   47
          inv. 120 deg rotation - cart. axis [-1,-1,-1]          
     3s_h    26   28   27
          inv. 180 deg rotation - cart. axis [0,0,1]             
     6S4     31   32   39   40   36   35
          inv.  90 deg rotation - cart. axis [0,0,-1]            
     6s_d    29   30   38   37   34   33
          inv. 180 deg rotation - cart. axis [1,1,0]             

   Cartesian axes

     site n.     atom                  positions (alat units)
         1        Si     tau(   1) = (   0.0000000   0.0000000   0.0000000  )
         2        Si     tau(   2) = (  -0.2500000   0.2500000   0.2500000  )

   Crystallographic axes

     site n.     atom                  positions (cryst. coord.)
         1        Si     tau(   1) = (  0.0000000  0.0000000  0.0000000  )
         2        Si     tau(   2) = (  0.2500000  0.2500000  0.2500000  )

     number of k points=    16
                       cart. coord. in units 2pi/alat
        k(    1) = (   0.0000000   0.0000000   0.0000000), wk =   0.0092593
        k(    2) = (  -0.1666667   0.1666667  -0.1666667), wk =   0.0740741
        k(    3) = (  -0.3333333   0.3333333  -0.3333333), wk =   0.0740741
        k(    4) = (   0.5000000  -0.5000000   0.5000000), wk =   0.0370370
        k(    5) = (   0.0000000   0.3333333   0.0000000), wk =   0.0555556
        k(    6) = (  -0.1666667   0.5000000  -0.1666667), wk =   0.2222222
        k(    7) = (   0.6666667  -0.3333333   0.6666667), wk =   0.2222222
        k(    8) = (   0.5000000  -0.1666667   0.5000000), wk =   0.2222222
        k(    9) = (   0.3333333   0.0000000   0.3333333), wk =   0.1111111
        k(   10) = (   0.0000000   0.6666667   0.0000000), wk =   0.0555556
        k(   11) = (   0.8333333  -0.1666667   0.8333333), wk =   0.2222222
        k(   12) = (   0.6666667  -0.0000000   0.6666667), wk =   0.1111111
        k(   13) = (   0.0000000  -1.0000000   0.0000000), wk =   0.0277778
        k(   14) = (   0.6666667  -0.3333333   1.0000000), wk =   0.2222222
        k(   15) = (   0.5000000  -0.1666667   0.8333333), wk =   0.2222222
        k(   16) = (  -0.3333333  -1.0000000   0.0000000), wk =   0.1111111

                       cryst. coord.
        k(    1) = (   0.0000000   0.0000000   0.0000000), wk =   0.0092593
        k(    2) = (   0.0000000   0.0000000   0.1666667), wk =   0.0740741
        k(    3) = (   0.0000000   0.0000000   0.3333333), wk =   0.0740741
        k(    4) = (   0.0000000   0.0000000  -0.5000000), wk =   0.0370370
        k(    5) = (   0.0000000   0.1666667   0.1666667), wk =   0.0555556
        k(    6) = (   0.0000000   0.1666667   0.3333333), wk =   0.2222222
        k(    7) = (   0.0000000   0.1666667  -0.5000000), wk =   0.2222222
        k(    8) = (   0.0000000   0.1666667  -0.3333333), wk =   0.2222222
        k(    9) = (   0.0000000   0.1666667  -0.1666667), wk =   0.1111111
        k(   10) = (   0.0000000   0.3333333   0.3333333), wk =   0.0555556
        k(   11) = (   0.0000000   0.3333333  -0.5000000), wk =   0.2222222
        k(   12) = (   0.0000000   0.3333333  -0.3333333), wk =   0.1111111
        k(   13) = (   0.0000000  -0.5000000  -0.5000000), wk =   0.0277778
        k(   14) = (   0.1666667   0.3333333  -0.5000000), wk =   0.2222222
        k(   15) = (   0.1666667   0.3333333  -0.3333333), wk =   0.2222222
        k(   16) = (   0.1666667  -0.5000000  -0.3333333), wk =   0.1111111

     Dense  grid:    25605 G-vectors     FFT dimensions: (  48,  48,  48)

     Dynamical RAM for                 wfc:       0.10 MB

     Dynamical RAM for     wfc (w. buffer):       1.65 MB

     Dynamical RAM for           str. fact:       0.20 MB

     Dynamical RAM for           local pot:       0.00 MB

     Dynamical RAM for          nlocal pot:       0.88 MB

     Dynamical RAM for                qrad:       1.44 MB

     Dynamical RAM for          rho,v,vnew:       1.85 MB

     Dynamical RAM for               rhoin:       0.62 MB

     Dynamical RAM for            rho*nmix:       3.13 MB

     Dynamical RAM for           G-vectors:       0.83 MB

     Dynamical RAM for          h,s,v(r/c):       0.00 MB

     Dynamical RAM for          <psi|beta>:       0.00 MB

     Dynamical RAM for                 psi:       0.19 MB

     Dynamical RAM for                hpsi:       0.19 MB

     Dynamical RAM for      wfcinit/wfcrot:       0.19 MB

     Estimated static dynamical RAM per process >       9.96 MB

     Estimated max dynamical RAM per process >      13.48 MB

     Estimated total dynamical RAM >      26.96 MB

     Initial potential from superposition of free atoms

     starting charge       7.9989, renormalised to       8.0000
     Starting wfcs are    8 randomized atomic wfcs

     total cpu time spent up to now is        0.3 secs

     Self-consistent Calculation

     iteration #  1     ecut=    80.00 Ry     beta= 0.10
     Davidson diagonalization with overlap

---- Real-time Memory Report at c_bands before calling an iterative solver
            43 MiB given to the printing process from OS
             0 MiB allocation reported by mallinfo(arena+hblkhd)
         14818 MiB available memory on the node where the printing process lives
------------------
     ethr =  1.00E-02,  avg # of iterations =  2.7

     total cpu time spent up to now is        0.6 secs

     total energy              =     -19.41094267 Ry
     estimated scf accuracy    <       0.38223782 Ry

     iteration #  2     ecut=    80.00 Ry     beta= 0.10
     Davidson diagonalization with overlap

---- Real-time Memory Report at c_bands before calling an iterative solver
            47 MiB given to the printing process from OS
             0 MiB allocation reported by mallinfo(arena+hblkhd)
         14811 MiB available memory on the node where the printing process lives
------------------
     ethr =  4.78E-03,  avg # of iterations =  7.1

     negative rho (up, down):  1.790E-03 0.000E+00

     total cpu time spent up to now is        1.1 secs

     total energy              =     -35.91152215 Ry
     estimated scf accuracy    <      10.69889484 Ry

     iteration #  3     ecut=    80.00 Ry     beta= 0.10
     Davidson diagonalization with overlap

---- Real-time Memory Report at c_bands before calling an iterative solver
            47 MiB given to the printing process from OS
             0 MiB allocation reported by mallinfo(arena+hblkhd)
         14810 MiB available memory on the node where the printing process lives
------------------
     ethr =  4.78E-03,  avg # of iterations =  1.2

     total cpu time spent up to now is        1.3 secs

     total energy              =     -36.02809488 Ry
     estimated scf accuracy    <      11.12680515 Ry

     iteration #  4     ecut=    80.00 Ry     beta= 0.10
     Davidson diagonalization with overlap

---- Real-time Memory Report at c_bands before calling an iterative solver
            48 MiB given to the printing process from OS
             0 MiB allocation reported by mallinfo(arena+hblkhd)
         14808 MiB available memory on the node where the printing process lives
------------------
     ethr =  4.78E-03,  avg # of iterations =  1.0

     total cpu time spent up to now is        1.5 secs

     total energy              =     -32.18413925 Ry
     estimated scf accuracy    <       7.49699404 Ry

     iteration #  5     ecut=    80.00 Ry     beta= 0.10
     Davidson diagonalization with overlap

---- Real-time Memory Report at c_bands before calling an iterative solver
            48 MiB given to the printing process from OS
             0 MiB allocation reported by mallinfo(arena+hblkhd)
         14807 MiB available memory on the node where the printing process lives
------------------
     ethr =  4.78E-03,  avg # of iterations =  2.1

     total cpu time spent up to now is        1.8 secs

     total energy              =     -33.18583195 Ry
     estimated scf accuracy    <       1.65397743 Ry

     iteration #  6     ecut=    80.00 Ry     beta= 0.10
     Davidson diagonalization with overlap

---- Real-time Memory Report at c_bands before calling an iterative solver
            49 MiB given to the printing process from OS
             0 MiB allocation reported by mallinfo(arena+hblkhd)
         14807 MiB available memory on the node where the printing process lives
------------------
     ethr =  4.78E-03,  avg # of iterations =  1.0

     total cpu time spent up to now is        2.0 secs

     total energy              =     -31.84245006 Ry
     estimated scf accuracy    <       2.88434380 Ry

     iteration #  7     ecut=    80.00 Ry     beta= 0.10
     Davidson diagonalization with overlap

---- Real-time Memory Report at c_bands before calling an iterative solver
            49 MiB given to the printing process from OS
             0 MiB allocation reported by mallinfo(arena+hblkhd)
         14803 MiB available memory on the node where the printing process lives
------------------
     ethr =  4.78E-03,  avg # of iterations =  1.0

     total cpu time spent up to now is        2.2 secs

     total energy              =     -31.04911037 Ry
     estimated scf accuracy    <       0.99574122 Ry

     iteration #  8     ecut=    80.00 Ry     beta= 0.10
     Davidson diagonalization with overlap

---- Real-time Memory Report at c_bands before calling an iterative solver
            50 MiB given to the printing process from OS
             0 MiB allocation reported by mallinfo(arena+hblkhd)
         14803 MiB available memory on the node where the printing process lives
------------------
     ethr =  4.78E-03,  avg # of iterations =  2.1

     total cpu time spent up to now is        2.5 secs

     total energy              =     -31.15242083 Ry
     estimated scf accuracy    <       0.01140821 Ry

     iteration #  9     ecut=    80.00 Ry     beta= 0.10
     Davidson diagonalization with overlap

---- Real-time Memory Report at c_bands before calling an iterative solver
            50 MiB given to the printing process from OS
             0 MiB allocation reported by mallinfo(arena+hblkhd)
         14803 MiB available memory on the node where the printing process lives
------------------
     ethr =  1.43E-04,  avg # of iterations =  4.1

     total cpu time spent up to now is        2.7 secs

     total energy              =     -31.17107321 Ry
     estimated scf accuracy    <       0.02145628 Ry

     iteration # 10     ecut=    80.00 Ry     beta= 0.10
     Davidson diagonalization with overlap

---- Real-time Memory Report at c_bands before calling an iterative solver
            50 MiB given to the printing process from OS
             0 MiB allocation reported by mallinfo(arena+hblkhd)
         14803 MiB available memory on the node where the printing process lives
------------------
     ethr =  1.43E-04,  avg # of iterations =  1.0

     total cpu time spent up to now is        2.9 secs

     total energy              =     -31.15306336 Ry
     estimated scf accuracy    <       0.03218688 Ry

     iteration # 11     ecut=    80.00 Ry     beta= 0.10
     Davidson diagonalization with overlap

---- Real-time Memory Report at c_bands before calling an iterative solver
            50 MiB given to the printing process from OS
             0 MiB allocation reported by mallinfo(arena+hblkhd)
         14803 MiB available memory on the node where the printing process lives
------------------
     ethr =  1.43E-04,  avg # of iterations =  1.8

     total cpu time spent up to now is        3.2 secs

     total energy              =     -31.15446571 Ry
     estimated scf accuracy    <       0.00800773 Ry

     iteration # 12     ecut=    80.00 Ry     beta= 0.10
     Davidson diagonalization with overlap

---- Real-time Memory Report at c_bands before calling an iterative solver
            50 MiB given to the printing process from OS
             0 MiB allocation reported by mallinfo(arena+hblkhd)
         14804 MiB available memory on the node where the printing process lives
------------------
     ethr =  1.00E-04,  avg # of iterations =  1.0

     total cpu time spent up to now is        3.4 secs

     total energy              =     -31.15463016 Ry
     estimated scf accuracy    <       0.00878966 Ry

     iteration # 13     ecut=    80.00 Ry     beta= 0.10
     Davidson diagonalization with overlap

---- Real-time Memory Report at c_bands before calling an iterative solver
            50 MiB given to the printing process from OS
             0 MiB allocation reported by mallinfo(arena+hblkhd)
         14804 MiB available memory on the node where the printing process lives
------------------
     ethr =  1.00E-04,  avg # of iterations =  1.0

     total cpu time spent up to now is        3.5 secs

     total energy              =     -31.15674911 Ry
     estimated scf accuracy    <       0.01006873 Ry

     iteration # 14     ecut=    80.00 Ry     beta= 0.10
     Davidson diagonalization with overlap

---- Real-time Memory Report at c_bands before calling an iterative solver
            50 MiB given to the printing process from OS
             0 MiB allocation reported by mallinfo(arena+hblkhd)
         14804 MiB available memory on the node where the printing process lives
------------------
     ethr =  1.00E-04,  avg # of iterations =  1.0

     total cpu time spent up to now is        3.7 secs

     total energy              =     -31.15769746 Ry
     estimated scf accuracy    <       0.01746521 Ry

     iteration # 15     ecut=    80.00 Ry     beta= 0.10
     Davidson diagonalization with overlap

---- Real-time Memory Report at c_bands before calling an iterative solver
            50 MiB given to the printing process from OS
             0 MiB allocation reported by mallinfo(arena+hblkhd)
         14804 MiB available memory on the node where the printing process lives
------------------
     ethr =  1.00E-04,  avg # of iterations =  1.0

     total cpu time spent up to now is        4.0 secs

     total energy              =     -31.15771908 Ry
     estimated scf accuracy    <       0.02041833 Ry

     iteration # 16     ecut=    80.00 Ry     beta= 0.10
     Davidson diagonalization with overlap

---- Real-time Memory Report at c_bands before calling an iterative solver
            50 MiB given to the printing process from OS
             0 MiB allocation reported by mallinfo(arena+hblkhd)
         14804 MiB available memory on the node where the printing process lives
------------------
     ethr =  1.00E-04,  avg # of iterations =  1.0

     total cpu time spent up to now is        4.1 secs

     total energy              =     -31.15779791 Ry
     estimated scf accuracy    <       0.02045452 Ry

     iteration # 17     ecut=    80.00 Ry     beta= 0.10
     Davidson diagonalization with overlap

---- Real-time Memory Report at c_bands before calling an iterative solver
            50 MiB given to the printing process from OS
             0 MiB allocation reported by mallinfo(arena+hblkhd)
         14805 MiB available memory on the node where the printing process lives
------------------
     ethr =  1.00E-04,  avg # of iterations =  1.0

     total cpu time spent up to now is        4.3 secs

     total energy              =     -31.15098784 Ry
     estimated scf accuracy    <       0.02079760 Ry

     iteration # 18     ecut=    80.00 Ry     beta= 0.10
     Davidson diagonalization with overlap

---- Real-time Memory Report at c_bands before calling an iterative solver
            50 MiB given to the printing process from OS
             0 MiB allocation reported by mallinfo(arena+hblkhd)
         14805 MiB available memory on the node where the printing process lives
------------------
     ethr =  1.00E-04,  avg # of iterations =  1.6

     total cpu time spent up to now is        4.6 secs

     total energy              =     -31.14993910 Ry
     estimated scf accuracy    <       0.00252415 Ry

     iteration # 19     ecut=    80.00 Ry     beta= 0.10
     Davidson diagonalization with overlap

---- Real-time Memory Report at c_bands before calling an iterative solver
            50 MiB given to the printing process from OS
             0 MiB allocation reported by mallinfo(arena+hblkhd)
         14805 MiB available memory on the node where the printing process lives
------------------
     ethr =  3.16E-05,  avg # of iterations =  2.8

     total cpu time spent up to now is        4.8 secs

     total energy              =     -31.15034625 Ry
     estimated scf accuracy    <       0.00185712 Ry

     iteration # 20     ecut=    80.00 Ry     beta= 0.10
     Davidson diagonalization with overlap

---- Real-time Memory Report at c_bands before calling an iterative solver
            50 MiB given to the printing process from OS
             0 MiB allocation reported by mallinfo(arena+hblkhd)
         14805 MiB available memory on the node where the printing process lives
------------------
     ethr =  2.32E-05,  avg # of iterations =  1.0

     total cpu time spent up to now is        5.0 secs

     total energy              =     -31.15048798 Ry
     estimated scf accuracy    <       0.00005236 Ry

     iteration # 21     ecut=    80.00 Ry     beta= 0.10
     Davidson diagonalization with overlap

---- Real-time Memory Report at c_bands before calling an iterative solver
            50 MiB given to the printing process from OS
             0 MiB allocation reported by mallinfo(arena+hblkhd)
         14813 MiB available memory on the node where the printing process lives
------------------
     ethr =  6.54E-07,  avg # of iterations =  4.0

     total cpu time spent up to now is        5.3 secs

     total energy              =     -31.15043341 Ry
     estimated scf accuracy    <       0.00048965 Ry

     iteration # 22     ecut=    80.00 Ry     beta= 0.10
     Davidson diagonalization with overlap

---- Real-time Memory Report at c_bands before calling an iterative solver
            50 MiB given to the printing process from OS
             0 MiB allocation reported by mallinfo(arena+hblkhd)
         14813 MiB available memory on the node where the printing process lives
------------------
     ethr =  6.54E-07,  avg # of iterations =  2.1

     total cpu time spent up to now is        5.5 secs

     total energy              =     -31.15041122 Ry
     estimated scf accuracy    <       0.00010069 Ry

     iteration # 23     ecut=    80.00 Ry     beta= 0.10
     Davidson diagonalization with overlap

---- Real-time Memory Report at c_bands before calling an iterative solver
            50 MiB given to the printing process from OS
             0 MiB allocation reported by mallinfo(arena+hblkhd)
         14813 MiB available memory on the node where the printing process lives
------------------
     ethr =  6.54E-07,  avg # of iterations =  2.8

     total cpu time spent up to now is        5.8 secs

     total energy              =     -31.15045233 Ry
     estimated scf accuracy    <       0.00003123 Ry

     iteration # 24     ecut=    80.00 Ry     beta= 0.10
     Davidson diagonalization with overlap

---- Real-time Memory Report at c_bands before calling an iterative solver
            50 MiB given to the printing process from OS
             0 MiB allocation reported by mallinfo(arena+hblkhd)
         14813 MiB available memory on the node where the printing process lives
------------------
     ethr =  3.90E-07,  avg # of iterations =  1.3

     total cpu time spent up to now is        6.0 secs

     total energy              =     -31.15042941 Ry
     estimated scf accuracy    <       0.00008137 Ry

     iteration # 25     ecut=    80.00 Ry     beta= 0.10
     Davidson diagonalization with overlap

---- Real-time Memory Report at c_bands before calling an iterative solver
            50 MiB given to the printing process from OS
             0 MiB allocation reported by mallinfo(arena+hblkhd)
         14813 MiB available memory on the node where the printing process lives
------------------
     ethr =  3.90E-07,  avg # of iterations =  2.0

     total cpu time spent up to now is        6.2 secs

     total energy              =     -31.15043584 Ry
     estimated scf accuracy    <       0.00000947 Ry

     iteration # 26     ecut=    80.00 Ry     beta= 0.10
     Davidson diagonalization with overlap

---- Real-time Memory Report at c_bands before calling an iterative solver
            50 MiB given to the printing process from OS
             0 MiB allocation reported by mallinfo(arena+hblkhd)
         14813 MiB available memory on the node where the printing process lives
------------------
     ethr =  1.18E-07,  avg # of iterations =  1.4

     total cpu time spent up to now is        6.4 secs

     End of self-consistent calculation

          k = 0.0000 0.0000 0.0000 (  3143 PWs)   bands (ev):

   -20.2993 -19.9509  -3.5701   9.0191

     occupation numbers 
     1.0000   1.0000   1.0000   1.0000

          k =-0.1667 0.1667-0.1667 (  3182 PWs)   bands (ev):

   -20.2781 -19.9657  -3.1860   6.0465

     occupation numbers 
     1.0000   1.0000   1.0000   1.0000

          k =-0.3333 0.3333-0.3333 (  3173 PWs)   bands (ev):

   -20.2286 -20.0023  -2.0337   2.6885

     occupation numbers 
     1.0000   1.0000   1.0000   1.0000

          k = 0.5000-0.5000 0.5000 (  3178 PWs)   bands (ev):

   -20.1967 -20.0280  -0.4137   0.3013

     occupation numbers 
     1.0000   1.0000   1.0000   1.0000

          k = 0.0000 0.3333 0.0000 (  3187 PWs)   bands (ev):

   -20.2708 -19.9710  -3.0576   7.0363

     occupation numbers 
     1.0000   1.0000   1.0000   1.0000

          k =-0.1667 0.5000-0.1667 (  3188 PWs)   bands (ev):

   -20.2291 -20.0020  -2.1597   4.0435

     occupation numbers 
     1.0000   1.0000   1.0000   1.0000

          k = 0.6667-0.3333 0.6667 (  3191 PWs)   bands (ev):

   -20.1845 -20.0382  -0.5308   1.1831

     occupation numbers 
     1.0000   1.0000   1.0000   1.0000

          k = 0.5000-0.1667 0.5000 (  3186 PWs)   bands (ev):

   -20.1974 -20.0274  -1.1430   2.0514

     occupation numbers 
     1.0000   1.0000   1.0000   1.0000

          k = 0.3333 0.0000 0.3333 (  3206 PWs)   bands (ev):

   -20.2468 -19.9887  -2.5449   5.0772

     occupation numbers 
     1.0000   1.0000   1.0000   1.0000

          k = 0.0000 0.6667 0.0000 (  3170 PWs)   bands (ev):

   -20.1979 -20.0268  -1.5155   4.4257

     occupation numbers 
     1.0000   1.0000   1.0000   1.0000

          k = 0.8333-0.1667 0.8333 (  3189 PWs)   bands (ev):

   -20.1518 -20.0668  -0.1149   2.6341

     occupation numbers 
     1.0000   1.0000   1.0000   1.0000

          k = 0.6667-0.0000 0.6667 (  3198 PWs)   bands (ev):

   -20.1516 -20.0671   0.4455   2.0633

     occupation numbers 
     1.0000   1.0000   1.0000   1.0000

          k = 0.0000-1.0000 0.0000 (  3250 PWs)   bands (ev):

   -20.1084 -20.1084   1.0402   1.0402

     occupation numbers 
     1.0000   1.0000   1.0000   1.0000

          k = 0.6667-0.3333 1.0000 (  3201 PWs)   bands (ev):

   -20.1852 -20.0377  -1.0086   3.4811

     occupation numbers 
     1.0000   1.0000   1.0000   1.0000

          k = 0.5000-0.1667 0.8333 (  3182 PWs)   bands (ev):

   -20.1514 -20.0671   0.5852   1.3216

     occupation numbers 
     1.0000   1.0000   1.0000   1.0000

          k =-0.3333-1.0000 0.0000 (  3182 PWs)   bands (ev):

   -20.1082 -20.1082   1.4659   1.4659

     occupation numbers 
     1.0000   1.0000   1.0000   1.0000

     highest occupied level (ev):     9.0191

!    total energy              =     -31.15043650 Ry
     estimated scf accuracy    <       0.00000066 Ry

     The total energy is the sum of the following terms:
     one-electron contribution =     -16.54840489 Ry
     hartree contribution      =      11.44657643 Ry
     xc contribution           =      -9.11564759 Ry
     ewald contribution        =     -16.93296045 Ry

     convergence has been achieved in  26 iterations

     Writing all to output data dir /tmp/qe_porting_si_sym/Si_sym.save/ :
     XML data file, charge density, pseudopotentials, collected wavefunctions

     init_run     :      0.20s CPU      0.28s WALL (       1 calls)
     electrons    :      5.92s CPU      6.12s WALL (       1 calls)

     Called by init_run:
     wfcinit      :      0.12s CPU      0.17s WALL (       1 calls)
     wfcinit:atom :      0.00s CPU      0.00s WALL (      16 calls)
     wfcinit:wfcr :      0.11s CPU      0.16s WALL (      16 calls)
     potinit      :      0.01s CPU      0.02s WALL (       1 calls)
     hinit0       :      0.02s CPU      0.03s WALL (       1 calls)

     Called by electrons:
     c_bands      :      4.91s CPU      5.07s WALL (      26 calls)
     sum_band     :      0.88s CPU      0.91s WALL (      26 calls)
     v_of_rho     :      0.06s CPU      0.07s WALL (      27 calls)
     v_h          :      0.02s CPU      0.02s WALL (      27 calls)
     v_xc         :      0.04s CPU      0.04s WALL (      27 calls)
     mix_rho      :      0.05s CPU      0.06s WALL (      26 calls)

     Called by c_bands:
     init_us_2    :      0.28s CPU      0.29s WALL (     848 calls)
     cegterg      :      4.37s CPU      4.51s WALL (     416 calls)

     Called by sum_band:
     sum_band:wei :      0.00s CPU      0.00s WALL (      26 calls)
     sum_band:loo :      0.82s CPU      0.84s WALL (      26 calls)
     sum_band:buf :      0.00s CPU      0.00s WALL (     416 calls)
     sum_band:ini :      0.13s CPU      0.14s WALL (     416 calls)

     Called by *egterg:
     cdiaghg      :      0.03s CPU      0.03s WALL (    1215 calls)
     cegterg:over :      0.09s CPU      0.09s WALL (     799 calls)
     cegterg:upda :      0.05s CPU      0.05s WALL (     799 calls)
     cegterg:last :      0.07s CPU      0.07s WALL (     708 calls)
     h_psi        :      4.17s CPU      4.35s WALL (    1231 calls)
     g_psi        :      0.02s CPU      0.02s WALL (     799 calls)

     Called by h_psi:
     h_psi:calbec :      0.33s CPU      0.35s WALL (    1231 calls)
     vloc_psi     :      3.50s CPU      3.66s WALL (    1231 calls)
                                        0.00s GPU  (    1231 calls)
     add_vuspsi   :      0.32s CPU      0.33s WALL (    1231 calls)

     General routines
     calbec       :      0.33s CPU      0.34s WALL (    1231 calls)
     fft          :      0.05s CPU      0.05s WALL (      80 calls)
     ffts         :      0.02s CPU      0.02s WALL (      26 calls)
     fftw         :      3.74s CPU      3.91s WALL (   10304 calls)

     Parallel routines

     PWSCF        :      6.14s CPU      6.43s WALL


   This run was terminated on:  18: 4:16  31Jul2026            

=------------------------------------------------------------------------------=
   JOB DONE.
=------------------------------------------------------------------------------=
